! labauto 0.1.0 job C1000T1A-L24071-00418__sparam-1000base-t1-pair__20260918T093714
! sample C1000T1A-L24071-0041
! procedure sparam-1000base-t1-pair v1.2 76dd721489cb
! calibration CAL-20260916-SOLT4
! trust trusted
! labauto-sim,VNA4-8500,SIM0001,A.01.20
! ports [1, 2, 3, 4]
! IFBW 1000 Hz, 1 avg, 0 dBm
# Hz S RI R 50
1000000.0000000000 7.300811740000000e-02 5.182251510000000e-02 3.451996860000000e-02 6.515065560000000e-02 8.437154070000000e-01 -4.388687860000000e-01 -1.107079850000000e-02 -1.116238920000000e-02
            3.453505000000000e-02 6.515273450000000e-02 6.992414140000000e-02 5.104852610000000e-02 -1.110721900000000e-02 -1.103336750000000e-02 8.453286830000000e-01 -4.378447340000000e-01
            8.437186550000000e-01 -4.388716200000000e-01 -1.110284230000000e-02 -1.102430510000000e-02 6.932820230000000e-02 5.037753960000000e-02 3.453825630000000e-02 6.515490090000001e-02
            -1.107930960000000e-02 -1.115951750000000e-02 8.453233750000000e-01 -4.378478090000000e-01 3.452805680000000e-02 6.515523220000000e-02 7.369679210000001e-02 5.148643560000000e-02
1499582.9900000000 1.057154020000000e-01 5.509311920000000e-02 6.848194470000001e-02 7.786183280000000e-02 7.103001580000000e-01 -6.164168260000000e-01 -1.928150510000000e-02 -8.408678200000000e-03
            6.847579800000000e-02 7.786841710000000e-02 1.025675030000000e-01 5.430505190000000e-02 -1.926661010000000e-02 -8.235850360000000e-03 7.120768050000000e-01 -6.157897510000000e-01
            7.103036780000000e-01 -6.164115090000000e-01 -1.925807900000000e-02 -8.242458170000000e-03 1.018882470000000e-01 5.373600940000000e-02 6.847868830000001e-02 7.785920080000000e-02
            -1.928227280000000e-02 -8.409827559999999e-03 7.120713760000000e-01 -6.157988480000000e-01 6.848638920000000e-02 7.785300850000000e-02 1.063731750000000e-01 5.488078650000000e-02
1999165.9700000000 1.355548110000000e-01 4.324031580000000e-02 1.034260190000000e-01 7.401109200000000e-02 5.436730319999999e-01 -7.558699220000000e-01 -2.431295660000000e-02 -1.219432980000000e-03
            1.034199860000000e-01 7.400544200000000e-02 1.323484460000000e-01 4.247447270000000e-02 -2.421428160000000e-02 -1.038020480000000e-03 5.455228900000000e-01 -7.556851020000001e-01
            5.436834930000000e-01 -7.558724440000000e-01 -2.421473060000000e-02 -1.030329480000000e-03 1.316123270000000e-01 4.208604360000000e-02 1.034242170000000e-01 7.400932250000000e-02
            -2.431426400000000e-02 -1.220759530000000e-03 5.455256130000000e-01 -7.556848229999999e-01 1.034235560000000e-01 7.402005210000000e-02 1.361724530000000e-01 4.319620910000000e-02
2498748.9600000000 1.565440720000000e-01 1.942338290000000e-02 1.322381770000000e-01 5.558974470000000e-02 3.538661920000000e-01 -8.530875280000000e-01 -2.452158820000000e-02 7.292808120000000e-03
            1.322250400000000e-01 5.558928760000000e-02 1.533232460000000e-01 1.868178680000000e-02 -2.435166870000000e-02 7.446848830000000e-03 3.556895780000000e-01 -8.533345330000000e-01
            3.538701370000000e-01 -8.530821750000001e-01 -2.435179730000000e-02 7.437094530000000e-03 1.525974460000000e-01 1.850363880000000e-02 1.322177130000000e-01 5.557797270000000e-02
            -2.451179210000000e-02 7.284116670000000e-03 3.556830740000000e-01 -8.533394420000000e-01 1.322241330000000e-01 5.558129400000000e-02 1.572017430000000e-01 1.956396180000000e-02
2998331.9399999999 1.648803030000000e-01 -1.132378000000000e-02 1.496825460000000e-01 2.698303690000000e-02 1.500982340000000e-01 -9.060608910000000e-01 -2.057877980000000e-02 1.391424370000000e-02
            1.496845490000000e-01 2.697848960000000e-02 1.616205750000000e-01 -1.199954120000000e-02 -2.040193200000000e-02 1.399056910000000e-02 1.518083500000000e-01 -9.067060780000000e-01
            1.500923830000000e-01 -9.060564530000000e-01 -2.040156580000000e-02 1.399661040000000e-02 1.610088290000000e-01 -1.195305380000000e-02 1.496663840000000e-01 2.698114650000000e-02
            -2.061530600000000e-02 1.390796580000000e-02 1.518011080000000e-01 -9.066990630000000e-01 1.496728330000000e-01 2.697372170000000e-02 1.656051090000000e-01 -1.097472830000000e-02
3497914.9300000002 1.589436390000000e-01 -4.307248970000000e-02 1.528185540000000e-01 -6.014997880000000e-03 -5.911271440000000e-02 -9.138871690000000e-01 -1.498051590000000e-02 1.678184610000000e-02
            1.527987350000000e-01 -6.013693520000000e-03 1.557155360000000e-01 -4.369587480000000e-02 -1.479348650000000e-02 1.681188340000000e-02 -5.760272220000000e-02 -9.149012909999999e-01
            -5.910832970000000e-02 -9.138947740000000e-01 -1.479855770000000e-02 1.682098410000000e-02 1.552889690000000e-01 -4.347342550000000e-02 1.528236870000000e-01 -6.004756560000000e-03
            -1.497164580000000e-02 1.679026820000000e-02 -5.759947000000000e-02 -9.149142450000000e-01 1.528091840000000e-01 -6.024525790000000e-03 1.598753580000000e-01 -4.256206950000000e-02
3997497.9100000001 1.395646270000000e-01 -6.984599790000000e-02 1.411205740000000e-01 -3.694675930000000e-02 -2.654796800000000e-01 -8.762291370000000e-01 -1.062582990000000e-02 1.608106850000000e-02
            1.411061290000000e-01 -3.695648840000000e-02 1.363609210000000e-01 -7.043299530000000e-02 -1.046039880000000e-02 1.609425120000000e-02 -2.642421160000000e-01 -8.775568830000000e-01
            -2.654726450000000e-01 -8.762290780000001e-01 -1.045573550000000e-02 1.608881200000000e-02 1.361780690000000e-01 -7.008501050000000e-02 1.411249670000000e-01 -3.694915110000000e-02
            -1.063165320000000e-02 1.608626980000000e-02 -2.642396660000000e-01 -8.775617510000000e-01 1.411069070000000e-01 -3.696664340000000e-02 1.407322800000000e-01 -6.923541850000001e-02
4497080.9000000004 1.097054710000000e-01 -8.618000950000000e-02 1.166550580000000e-01 -5.957692200000000e-02 -4.601623970000000e-01 -7.933770150000000e-01 -9.693765720000001e-03 1.391003500000000e-02
            1.166624860000000e-01 -5.958204140000000e-02 1.065664840000000e-01 -8.674122710000000e-02 -9.556147080000001e-03 1.393506000000000e-02 -4.592687810000000e-01 -7.949649260000000e-01
            -4.601763460000000e-01 -7.933838810000000e-01 -9.550746230000001e-03 1.392667520000000e-02 1.066793730000000e-01 -8.638972680000000e-02 1.166649450000000e-01 -5.958497890000000e-02
            -9.689533449999999e-03 1.390868000000000e-02 -4.592694280000000e-01 -7.949548360000001e-01 1.166740040000000e-01 -5.959340490000000e-02 1.111475130000000e-01 -8.558096960000000e-02
4996663.8899999997 7.465699460000000e-02 -8.804234820000000e-02 8.417108950000000e-02 -6.868461260000000e-02 -6.332849990000000e-01 -6.669408140000000e-01 -1.240198570000000e-02 1.346030340000000e-02
            8.417792510000000e-02 -6.869679070000000e-02 7.157839420000001e-02 -8.860632130000000e-02 -1.224093560000000e-02 1.351028260000000e-02 -6.327578080000000e-01 -6.686860030000000e-01
            -6.332833640000000e-01 -6.669409220000000e-01 -1.224975330000000e-02 1.350991950000000e-02 7.197846650000000e-02 -8.836578270000001e-02 8.419622020000000e-02 -6.871910420000001e-02
            -1.240582810000000e-02 1.347217010000000e-02 -6.327714360000000e-01 -6.686810260000000e-01 8.417907430000000e-02 -6.869354510000000e-02 7.634433540000000e-02 -8.754180730000000e-02
5496246.8700000001 4.149815760000000e-02 -7.383928090000000e-02 5.070239320000000e-02 -6.155005460000000e-02 -7.738973910000000e-01 -5.011202210000000e-01 -1.655580200000000e-02 1.751156660000000e-02
            5.072049050000000e-02 -6.154141660000000e-02 3.845968350000000e-02 -7.444091050000000e-02 -1.636204980000000e-02 1.755811400000000e-02 -7.738025430000000e-01 -5.029388520000000e-01
            -7.739121900000000e-01 -5.011110510000000e-01 -1.634842210000000e-02 1.757639680000000e-02 3.906876200000000e-02 -7.443154890000001e-02 5.073025640000000e-02 -6.156684930000000e-02
            -1.654761910000000e-02 1.752204450000000e-02 -7.738105570000000e-01 -5.029372020000000e-01 5.073250140000000e-02 -6.156412820000000e-02 4.336756130000000e-02 -7.356059230000001e-02
5995829.8600000003 1.783412070000000e-02 -4.567272280000000e-02 2.436569940000000e-02 -3.915273240000000e-02 -8.713057200000000e-01 -3.039849660000000e-01 -1.829583190000000e-02 2.672389910000000e-02
            2.437401440000000e-02 -3.915228610000000e-02 1.486800830000000e-02 -4.632218190000000e-02 -1.803661870000000e-02 2.673365440000000e-02 -8.716380060000000e-01 -3.057734140000000e-01
            -8.713248940000000e-01 -3.039761780000000e-01 -1.802625210000000e-02 2.674470540000000e-02 1.551619980000000e-02 -4.660510680000000e-02 2.436687060000000e-02 -3.919407360000000e-02
            -1.828759140000000e-02 2.671657810000000e-02 -8.716610430000000e-01 -3.057752170000000e-01 2.438056380000000e-02 -3.918129130000000e-02 1.976991810000000e-02 -4.564551960000000e-02
6495412.8399999999 9.733300310000000e-03 -9.524321470000000e-03 1.194119300000000e-02 -6.757736230000000e-03 -9.171155310000000e-01 -8.782902200000001e-02 -1.395639650000000e-02 3.877494180000000e-02
            1.194725540000000e-02 -6.759180860000000e-03 6.779791370000000e-03 -1.023978820000000e-02 -1.361657730000000e-02 3.871249550000000e-02 -9.178677660000000e-01 -8.949987570000000e-02
            -9.171017350000000e-01 -8.783754420000001e-02 -1.361078970000000e-02 3.871724520000000e-02 7.364492430000000e-03 -1.080088230000000e-02 1.192627980000000e-02 -6.798415640000000e-03
            -1.395687790000000e-02 3.877327940000000e-02 -9.178547590000000e-01 -8.948893199999999e-02 1.192588060000000e-02 -6.803531510000000e-03 1.158500330000000e-02 -9.765768370000000e-03
6994995.8300000001 1.932536010000000e-02 2.600044570000000e-02 1.660085520000000e-02 2.739107770000000e-02 -9.076274200000000e-01 1.321123780000000e-01 -2.168364300000000e-03 4.922710460000000e-02
            1.660367160000000e-02 2.738428800000000e-02 1.634586740000000e-02 2.523167870000000e-02 -1.791330070000000e-03 4.903335620000000e-02 -9.087426150000000e-01 1.306838570000000e-01
            -9.076271610000000e-01 1.321200960000000e-01 -1.794714960000000e-03 4.904391330000000e-02 1.671198200000000e-02 2.444891640000000e-02 1.654288390000000e-02 2.734399900000000e-02
            -2.162774430000000e-03 4.922452730000000e-02 -9.087372940000000e-01 1.306787570000000e-01 1.654442040000000e-02 2.735482720000000e-02 2.096193700000000e-02 2.557588640000000e-02
7494578.8200000003 4.390590130000000e-02 5.244863900000000e-02 3.665661440000000e-02 5.472703000000000e-02 -8.449165440000000e-01 3.403865070000000e-01 1.518927780000000e-02 5.362289140000000e-02
            3.666025990000000e-02 5.473719020000000e-02 4.089554790000000e-02 5.162008160000000e-02 1.551108220000000e-02 5.328729810000000e-02 -8.463195250000000e-01 3.392865560000000e-01
            -8.449044350000000e-01 3.403932550000000e-01 1.552249120000000e-02 5.328940660000000e-02 4.094118640000000e-02 5.074937070000000e-02 3.658401320000000e-02 5.470590190000000e-02
            1.518406510000000e-02 5.361313320000000e-02 -8.463293840000000e-01 3.393022630000000e-01 3.656401000000000e-02 5.471092960000000e-02 4.524433980000000e-02 5.195316370000000e-02
7994161.7999999998 7.699644140000000e-02 6.412113090000000e-02 6.650036910000000e-02 6.911248540000001e-02 -7.358842020000000e-01 5.241649020000000e-01 3.381419960000000e-02 4.973730140000000e-02
            6.648665160000000e-02 6.909665610000000e-02 7.392467150000000e-02 6.326499430000000e-02 3.403267440000000e-02 4.926710350000000e-02 -7.375023950000000e-01 5.234171160000000e-01
            -7.358821990000000e-01 5.241792000000000e-01 3.403070560000000e-02 4.926155110000000e-02 7.368919650000000e-02 6.249446860000000e-02 6.641284530000000e-02 6.913141420000000e-02
            3.380249590000000e-02 4.972859520000000e-02 -7.374971330000000e-01 5.234246410000000e-01 6.641885990000000e-02 6.912166470000000e-02 7.806339399999999e-02 6.374619149999999e-02
8493744.7899999991 1.106995290000000e-01 5.947956160000000e-02 9.875043810000000e-02 6.816878560000000e-02 -5.899783730000000e-01 6.745168140000000e-01 4.921173120000000e-02 3.837965700000000e-02
            9.875091440000000e-02 6.817064650000000e-02 1.075642550000000e-01 5.863098470000000e-02 4.928527260000000e-02 3.785479570000000e-02 -5.917169310000000e-01 6.741669940000000e-01
            -5.899930310000000e-01 6.745010880000000e-01 4.927500480000000e-02 3.784863230000000e-02 1.070536700000000e-01 5.808330540000000e-02 9.868281800000001e-02 6.822722950000000e-02
            4.920116440000000e-02 3.836613260000000e-02 -5.917303340000000e-01 6.741509660000000e-01 9.867090589999999e-02 6.822863190000000e-02 1.115094260000000e-01 5.931951360000000e-02
8993327.7699999996 1.378532970000000e-01 4.062535600000000e-02 1.264424670000000e-01 5.319135350000000e-02 -4.171112430000000e-01 7.860877830000000e-01 5.850784180000000e-02 2.263038630000000e-02
            1.264562130000000e-01 5.318579500000000e-02 1.346898790000000e-01 3.979121880000000e-02 5.843514460000000e-02 2.211684010000000e-02 -4.188687810000000e-01 7.861512630000000e-01
            -4.171202760000000e-01 7.860842030000000e-01 5.843676300000000e-02 2.213299380000000e-02 1.340378480000000e-01 3.963303000000000e-02 1.264200290000000e-01 5.327324240000000e-02
            5.851359570000000e-02 2.263591340000000e-02 -4.188723140000000e-01 7.861464780000000e-01 1.264013740000000e-01 5.326856540000000e-02 1.385600230000000e-01 4.082617500000000e-02
9492910.7599999998 1.534500140000000e-01 1.226862180000000e-02 1.443304030000000e-01 2.794622230000000e-02 -2.264643390000000e-01 8.561282010000000e-01 6.128743570000000e-02 6.274483940000000e-03
            1.443299180000000e-01 2.795175140000000e-02 1.502504260000000e-01 1.146399000000000e-02 6.106851400000000e-02 5.820333890000000e-03 -2.281523530000000e-01 8.565809880000000e-01
            -2.264585860000000e-01 8.561277400000000e-01 6.108121720000000e-02 5.804278060000000e-03 1.496310090000000e-01 1.173624950000000e-02 1.443523330000000e-01 2.804483160000000e-02
            6.129722970000000e-02 6.276708220000000e-03 -2.281560950000000e-01 8.565842860000000e-01 1.443486250000000e-01 2.805060870000000e-02 1.541918150000000e-01 1.286530370000000e-02
9992493.7400000002 1.549019120000000e-01 -1.974763180000000e-02 1.492944320000000e-01 -2.306199010000000e-03 -2.640941980000000e-02 8.831081990000000e-01 5.920079010000000e-02 -7.853178060000000e-03
            1.492985100000000e-01 -2.308692770000000e-03 1.516915080000000e-01 -2.048273890000000e-02 5.889954310000000e-02 -8.252777430000000e-03 -2.794984740000000e-02 8.839195640000000e-01
            -2.641162880000000e-02 8.830939510000000e-01 5.889124260000000e-02 -8.244652500000000e-03 1.512986410000000e-01 -1.982839130000000e-02 1.493481560000000e-01 -2.218419250000000e-03
            5.919268230000000e-02 -7.852309680000001e-03 -2.793913820000000e-02 8.839151620000000e-01 1.493492550000000e-01 -2.207956670000000e-03 1.558495580000000e-01 -1.876057210000000e-02
10492076.6999999993 1.421011680000000e-01 -4.916917840000000e-02 1.404805290000000e-01 -3.168291200000000e-02 1.750153130000000e-01 8.661021270000000e-01 5.491458280000000e-02 -1.869573100000000e-02
            1.404895540000000e-01 -3.168240660000000e-02 1.389172870000000e-01 -4.985987210000000e-02 5.454291050000000e-02 -1.900372390000000e-02 1.737131330000000e-01 8.672311880000000e-01
            1.750122230000000e-01 8.660967820000000e-01 5.454671630000000e-02 -1.900919540000000e-02 1.388977790000000e-01 -4.890217090000000e-02 1.405875070000000e-01 -3.161829920000000e-02
            5.490559910000000e-02 -1.869221990000000e-02 1.737248050000000e-01 8.672243410000000e-01 1.405823430000000e-01 -3.162812520000000e-02 1.434170270000000e-01 -4.791822580000000e-02
10991659.6999999993 1.173418030000000e-01 -7.020882570000000e-02 1.193771200000000e-01 -5.433657200000000e-02 3.693818260000000e-01 8.047469660000000e-01 5.088332880000000e-02 -2.712259940000000e-02
            1.193839090000000e-01 -5.432240420000000e-02 1.142198330000000e-01 -7.085979240000000e-02 5.047699970000000e-02 -2.737467510000000e-02 3.683650330000000e-01 8.061616950000000e-01
            3.693773640000000e-01 8.047593199999999e-01 5.047354460000000e-02 -2.736361080000000e-02 1.146666130000000e-01 -6.974532260000001e-02 1.195087390000000e-01 -5.430863080000000e-02
            5.087948730000000e-02 -2.710779390000000e-02 3.683723560000000e-01 8.061709530000000e-01 1.194985960000000e-01 -5.431208900000000e-02 1.191224770000000e-01 -6.878959220000000e-02
11491242.6999999993 8.520131310000000e-02 -7.811151240000000e-02 8.986632059999999e-02 -6.524118530000000e-02 5.471544170000000e-01 6.998443220000000e-01 4.808310740000000e-02 -3.540605560000000e-02
            8.987456240000000e-02 -6.523805820000000e-02 8.211976629999999e-02 -7.875254030000001e-02 4.762177020000000e-02 -3.561404300000000e-02 5.465005640000000e-01 7.014583089999999e-01
            5.471576610000000e-01 6.998384450000000e-01 4.762065450000000e-02 -3.560243270000000e-02 8.310829090000001e-02 -7.769742470000000e-02 9.000989280000000e-02 -6.526378510000000e-02
            4.808555030000000e-02 -3.539820480000000e-02 5.465044790000000e-01 7.014753700000000e-01 9.000944029999999e-02 -6.526625070000000e-02 8.749325300000001e-02 -7.677410620000000e-02
11990825.6999999993 5.222215630000000e-02 -7.043382939999999e-02 5.810064740000000e-02 -6.129937240000000e-02 6.977855840000000e-01 5.543089500000000e-01 4.535314460000000e-02 -4.594519180000000e-02
            5.808746220000000e-02 -6.129928720000000e-02 4.921477100000000e-02 -7.109779669999999e-02 4.484931920000000e-02 -4.608113480000000e-02 6.975290320000000e-01 5.560370830000000e-01
            6.977896790000000e-01 5.543253190000000e-01 4.482607130000000e-02 -4.606186740000000e-02 5.068961650000000e-02 -7.032881410000000e-02 5.823249000000000e-02 -6.139773410000000e-02
            4.535517690000000e-02 -4.595267540000000e-02 6.975355440000000e-01 5.560471890000001e-01 5.823066160000000e-02 -6.139549700000000e-02 5.497931490000000e-02 -6.934786330000001e-02
12490408.6999999993 2.603652750000000e-02 -4.800918160000000e-02 3.146569220000000e-02 -4.263291660000000e-02 8.104044110000000e-01 3.746253230000000e-01 3.979700040000000e-02 -5.958223570000000e-02
            3.147036030000000e-02 -4.265043660000000e-02 2.305606230000000e-02 -4.870265840000000e-02 3.920408930000000e-02 -5.961659090000000e-02 8.105434860000000e-01 3.763562870000000e-01
            8.103910530000000e-01 3.746311280000000e-01 3.919431140000000e-02 -5.963059880000000e-02 2.485599400000000e-02 -4.838634170000000e-02 3.156514550000000e-02 -4.280581860000000e-02
            3.980340070000000e-02 -5.956783970000000e-02 8.105493430000000e-01 3.763617350000000e-01 3.156976400000000e-02 -4.279951220000000e-02 2.909074150000000e-02 -4.735660280000000e-02
12989991.6999999993 1.321583070000000e-02 -1.557751980000000e-02 1.677833120000000e-02 -1.334533610000000e-02 8.756896310000000e-01 1.713679270000000e-01 2.817703970000000e-02 -7.465375530000000e-02
            1.676938680000000e-02 -1.332901550000000e-02 1.026309510000000e-02 -1.634784320000000e-02 2.752854550000000e-02 -7.453930450000000e-02 8.762658400000000e-01 1.730067450000000e-01
            8.756886830000000e-01 1.713498360000000e-01 2.753634410000000e-02 -7.453491700000001e-02 1.218624850000000e-02 -1.654704500000000e-02 1.680637080000000e-02 -1.354915250000000e-02
            2.817125170000000e-02 -7.465032550000000e-02 8.762654280000000e-01 1.730044240000000e-01 1.681332140000000e-02 -1.353108900000000e-02 1.638462890000000e-02 -1.543972160000000e-02
13489574.5999999996 1.720584020000000e-02 1.908907220000000e-02 1.791492670000000e-02 1.937260870000000e-02 8.883576439999999e-01 -4.150152080000000e-02 8.998583960000001e-03 -8.717890189999999e-02
            1.790764870000000e-02 1.937675520000000e-02 1.424634570000000e-02 1.826084340000000e-02 8.323541190000000e-03 -8.686541010000000e-02 8.892897850000000e-01 -4.002773060000000e-02
            8.883331730000000e-01 -4.149138310000000e-02 8.323676040000000e-03 -8.687075010000000e-02 1.605492760000000e-02 1.751758350000000e-02 1.785885820000000e-02 1.916445240000000e-02
            8.998648450000001e-03 -8.717605760000000e-02 8.892925310000001e-01 -4.001762730000000e-02 1.785636030000000e-02 1.916677890000000e-02 2.024875510000000e-02 1.871155590000000e-02
13989157.5999999996 3.683380150000000e-02 4.743448150000000e-02 3.431366350000000e-02 4.726430000000000e-02 8.483697130000000e-01 -2.488488660000000e-01 -1.628461350000000e-02 -9.266817719999999e-02
            3.431459070000000e-02 4.725478320000000e-02 3.385371970000000e-02 4.656273430000000e-02 -1.688520310000000e-02 -9.217014620000000e-02 8.496388450000000e-01 -2.476673340000000e-01
            8.483932230000000e-01 -2.488372390000000e-01 -1.688975710000000e-02 -9.216248810000000e-02 3.530900840000000e-02 4.541128690000000e-02 3.415334500000000e-02 4.708137280000000e-02
            -1.628570760000000e-02 -9.267010770000000e-02 8.496312360000000e-01 -2.476551110000000e-01 3.415082060000000e-02 4.707819030000000e-02 3.957188300000000e-02 4.667245530000000e-02
14488740.5999999996 6.683518160000000e-02 6.297964030000000e-02 6.137954420000000e-02 6.379156020000000e-02 7.608566780000000e-01 -4.373413090000000e-01 -4.356104310000000e-02 -8.840369410000000e-02
            6.137567970000000e-02 6.378381260000000e-02 6.379381219999999e-02 6.207264420000000e-02 -4.401170480000000e-02 -8.772106350000000e-02 7.623479720000000e-01 -4.364820370000000e-01
            7.608582180000000e-01 -4.373399320000000e-01 -4.400350530000000e-02 -8.771339770000000e-02 6.480108320000000e-02 6.071317830000000e-02 6.114231920000000e-02 6.369452120000001e-02
            -4.354850710000000e-02 -8.840552610000001e-02 7.623456340000000e-01 -4.364832750000000e-01 6.114502480000000e-02 6.370239990000000e-02 6.912015439999999e-02 6.204026430000000e-02
14988323.5999999996 9.976459679999999e-02 6.296159190000000e-02 9.225721030000000e-02 6.587510839999999e-02 6.340015670000000e-01 -5.970410410000000e-01 -6.793772970000000e-02 -7.452739529999999e-02
            9.226318940000000e-02 6.588066360000000e-02 9.666858470000000e-02 6.204539260000000e-02 -6.818946820000001e-02 -7.374098930000000e-02 6.356344510000000e-01 -5.965610270000000e-01
            6.340093850000000e-01 -5.970413640000000e-01 -6.819209449999999e-02 -7.372928460000000e-02 9.716086710000001e-02 6.067919360000000e-02 9.199580890000000e-02 6.589907909999999e-02
            -6.793256759999999e-02 -7.453456400000000e-02 6.356255770000000e-01 -5.965623370000001e-01 9.199592540000000e-02 6.590152689999999e-02 1.015632620000000e-01 6.202064410000000e-02
15487906.5999999996 1.283513240000000e-01 4.836461280000000e-02 1.200571900000000e-01 5.403433710000000e-02 4.770440000000000e-01 -7.215975580000000e-01 -8.574638210000000e-02 -5.379513190000000e-02
            1.200505260000000e-01 5.402951710000000e-02 1.251901310000000e-01 4.746120330000000e-02 -8.577760880000000e-02 -5.295524730000000e-02 4.787297430000000e-01 -7.214901860000000e-01
            4.770438420000000e-01 -7.215800810000000e-01 -8.578305080000000e-02 -5.296125260000000e-02 1.252703160000000e-01 4.635851380000000e-02 1.198436670000000e-01 5.416802090000000e-02
            -8.574950610000000e-02 -5.378399340000000e-02 4.787248990000000e-01 -7.214859190000000e-01 1.198347810000000e-01 5.416982910000000e-02 1.297408150000000e-01 4.764170870000000e-02
15987489.5999999996 1.469990180000000e-01 2.305156480000000e-02 1.392934220000000e-01 3.148400360000000e-02 2.988642120000000e-01 -8.072837760000000e-01 -9.558961570000001e-02 -3.001292160000000e-02
            1.392969630000000e-01 3.148876420000000e-02 1.438287420000000e-01 2.218804340000000e-02 -9.539749130000000e-02 -2.921356960000000e-02 3.005169170000000e-01 -8.075674180000000e-01
            2.988560480000000e-01 -8.072727740000000e-01 -9.541596989999999e-02 -2.922772060000000e-02 1.436355480000000e-01 2.149474460000000e-02 1.391659640000000e-01 3.169958640000000e-02
            -9.557618930000000e-02 -3.001643140000000e-02 3.005191380000000e-01 -8.075781880000000e-01 1.391542950000000e-01 3.169425500000000e-02 1.481466520000000e-01 2.273108200000000e-02
16487072.5999999996 1.524512490000000e-01 -7.534492940000000e-03 1.465760230000000e-01 3.090417530000000e-03 1.076207150000000e-01 -8.519264030000000e-01 -9.826413410000000e-02 -6.698922540000000e-03
            1.465699550000000e-01 3.091324870000000e-03 1.492707050000000e-01 -8.359204310000000e-03 -9.791289220000000e-02 -5.971548320000000e-03 1.091733620000000e-01 -8.525736170000000e-01
            1.076205260000000e-01 -8.519317410000000e-01 -9.791781480000000e-02 -5.974904020000000e-03 1.490168640000000e-01 -8.553551939999999e-03 1.465457770000000e-01 3.319603050000000e-03
            -9.826512860000000e-02 -6.696679160000000e-03 1.091675550000000e-01 -8.525646930000000e-01 1.465504260000000e-01 3.327304870000000e-03 1.535506600000000e-01 -7.383117580000000e-03
16986655.5000000000 1.438975680000000e-01 -3.735727150000000e-02 1.406509800000000e-01 -2.559202410000000e-02 -8.882065180000000e-02 -8.540426690000000e-01 -9.597263640000001e-02 1.419224740000000e-02
            1.406541130000000e-01 -2.559273700000000e-02 1.407355570000000e-01 -3.810950100000000e-02 -9.548126860000000e-02 1.482074080000000e-02 -8.746266990000000e-02 -8.550321630000000e-01
            -8.882987689999999e-02 -8.540397360000000e-01 -9.548699130000000e-02 1.482328580000000e-02 1.406623640000000e-01 -3.780670860000000e-02 1.407334910000000e-01 -2.535594050000000e-02
            -9.597826940000000e-02 1.419930960000000e-02 -8.747137030000000e-02 -8.550194370000000e-01 1.407373250000000e-01 -2.535523910000000e-02 1.451558240000000e-01 -3.670250140000000e-02
17486238.5000000000 1.228536390000000e-01 -6.051557410000000e-02 1.225245340000000e-01 -4.888723010000000e-02 -2.823394870000000e-01 -8.127046460000000e-01 -9.114251220000000e-02 3.253034290000000e-02
            1.225213370000000e-01 -4.889132090000000e-02 1.197400360000000e-01 -6.123702170000000e-02 -9.052442320000000e-02 3.305625660000000e-02 -2.812285820000000e-01 -8.139698050000000e-01
            -2.823363600000000e-01 -8.126994260000000e-01 -9.052305160000000e-02 3.305707420000000e-02 1.200579330000000e-01 -6.054388970000000e-02 1.227231540000000e-01 -4.871386400000000e-02
            -9.113624830000000e-02 3.255493890000000e-02 -2.812277430000000e-01 -8.139571910000000e-01 1.227175780000000e-01 -4.872151450000000e-02 1.245152530000000e-01 -5.947286460000000e-02
17985821.5000000000 9.324358610000000e-02 -7.201756060000000e-02 9.549961270000000e-02 -6.179842200000000e-02 -4.637606640000000e-01 -7.279029080000000e-01 -8.508948249999999e-02 4.973789820000000e-02
            9.549719890000000e-02 -6.178141730000000e-02 9.015544790000000e-02 -7.274538160000001e-02 -8.438626400000000e-02 5.014613880000000e-02 -4.629867320000000e-01 -7.293895320000000e-01
            -4.637638820000000e-01 -7.278935350000000e-01 -8.438288030000000e-02 5.014585390000000e-02 9.104498540000000e-02 -7.182374610000000e-02 9.577941660000000e-02 -6.169918480000000e-02
            -8.508801420000001e-02 4.973846920000000e-02 -4.629930980000000e-01 -7.293827670000000e-01 9.576415580000000e-02 -6.169209310000000e-02 9.541131660000000e-02 -7.078520460000000e-02
18485404.5000000000 6.095295290000000e-02 -6.876306720000000e-02 6.500644350000000e-02 -6.090737930000000e-02 -6.228292430000000e-01 -6.015730480000000e-01 -7.744041409999999e-02 6.760198069999999e-02
            6.499769090000000e-02 -6.090110390000000e-02 5.795042950000000e-02 -6.950276860000000e-02 -7.663409160000000e-02 6.787198400000000e-02 -6.224180960000000e-01 -6.031897700000000e-01
            -6.228314020000000e-01 -6.015719380000000e-01 -7.663467409999999e-02 6.787252689999999e-02 5.943946430000000e-02 -6.862694000000000e-02 6.531847239999999e-02 -6.094763650000000e-02
            -7.742075490000000e-02 6.761093880000001e-02 -6.224209100000000e-01 -6.031990370000000e-01 6.531077950000000e-02 -6.093654540000000e-02 6.374168390000000e-02 -6.758076870000000e-02
18984987.5000000000 3.330028540000000e-02 -5.067515140000000e-02 3.798405160000000e-02 -4.567174250000000e-02 -7.486348290000000e-01 -4.388045130000000e-01 -6.600555160000000e-02 8.694262749999999e-02
            3.796703960000000e-02 -4.567518970000000e-02 3.033912750000000e-02 -5.144099620000000e-02 -6.510619090000000e-02 8.706360840000001e-02 -7.486269010000000e-01 -4.404805420000000e-01
            -7.486385129999999e-01 -4.387923590000000e-01 -6.510882200000000e-02 8.706516630000000e-02 3.240912400000000e-02 -5.087094820000000e-02 3.826262130000000e-02 -4.584142570000000e-02
            -6.599523380000000e-02 8.695214960000000e-02 -7.486284620000000e-01 -4.404864140000000e-01 3.828298960000000e-02 -4.585556410000000e-02 3.664306170000000e-02 -4.977447400000000e-02
19484570.5000000000 1.710109430000000e-02 -2.133753940000000e-02 2.119554490000000e-02 -1.918011280000000e-02 -8.313097000000000e-01 -2.487053000000000e-01 -4.804112210000000e-02 1.064273750000000e-01
            2.119804220000000e-02 -1.917826870000000e-02 1.416010310000000e-02 -2.215620630000000e-02 -4.708405390000000e-02 1.063293410000000e-01 -8.316914600000000e-01 -2.503400710000000e-01
            -8.313122920000000e-01 -2.487088450000000e-01 -4.710092060000000e-02 1.063270470000000e-01 1.666467070000000e-02 -2.211536430000000e-02 2.141295760000000e-02 -1.947678360000000e-02
            -4.803787090000000e-02 1.064173120000000e-01 -8.317057180000000e-01 -2.503457290000000e-01 2.140447380000000e-02 -1.949219230000000e-02 2.085315710000000e-02 -2.094736250000000e-02
19984153.5000000000 1.667428430000000e-02 1.226983510000000e-02 1.908863800000000e-02 1.218256690000000e-02 -8.641997310000000e-01 -4.400938130000000e-02 -2.204242010000000e-02 1.223883580000000e-01
            1.907635030000000e-02 1.216972200000000e-02 1.371681420000000e-02 1.138420660000000e-02 -2.110397350000000e-02 1.220107180000000e-01 -8.649625190000000e-01 -4.549939260000000e-02
            -8.642083830000000e-01 -4.400141730000000e-02 -2.110411160000000e-02 1.220164530000000e-01 1.640290900000000e-02 1.078553320000000e-02 1.916376940000000e-02 1.177790670000000e-02
            -2.204922810000000e-02 1.223809780000000e-01 -8.649546410000000e-01 -4.550014680000000e-02 1.915866120000000e-02 1.176700130000000e-02 2.059057520000000e-02 1.203766050000000e-02
20483736.3999999985 3.203548200000000e-02 4.190418150000000e-02 3.206373820000000e-02 4.049718000000000e-02 -8.455682410000001e-01 1.608016800000000e-01 1.074496740000000e-02 1.303461630000000e-01
            3.207138340000000e-02 4.051311790000000e-02 2.908435000000000e-02 4.096432020000000e-02 1.162473440000000e-02 1.297174150000000e-01 -8.466707940000000e-01 1.595409320000000e-01
            -8.455780890000000e-01 1.607937410000000e-01 1.162489560000000e-02 1.297252880000000e-01 3.165510840000000e-02 3.968077300000000e-02 3.198292100000000e-02 4.007855760000000e-02
            1.073362510000000e-02 1.303308170000000e-01 -8.466660700000000e-01 1.595294910000000e-01 3.198255840000000e-02 4.006858990000000e-02 3.587834010000000e-02 4.103247660000000e-02
20983319.3999999985 5.906128820000000e-02 6.053269360000000e-02 5.647668410000000e-02 5.902443600000000e-02 -7.788281860000000e-01 3.521114840000000e-01 4.641318570000000e-02 1.271327710000000e-01
            5.648092570000000e-02 5.901747820000000e-02 5.604876140000000e-02 5.957393420000000e-02 4.713804760000000e-02 1.262841560000000e-01 -7.801627330000001e-01 3.511528450000000e-01
            -7.788221170000000e-01 3.521244260000000e-01 4.714070590000000e-02 1.262614660000000e-01 5.826731160000000e-02 5.775513040000000e-02 5.621411560000000e-02 5.867473180000000e-02
            4.643208400000000e-02 1.271435280000000e-01 -7.801695340000000e-01 3.511381590000000e-01 5.621920560000000e-02 5.866573410000000e-02 6.256527460000000e-02 5.913481090000000e-02
21482902.3999999985 9.090720460000000e-02 6.449713360000001e-02 8.603760350000000e-02 6.396079010000000e-02 -6.708525990000000e-01 5.192605060000000e-01 7.981833650000000e-02 1.123209070000000e-01
            8.603739260000000e-02 6.395609519999999e-02 8.783485810000000e-02 6.351969210000000e-02 8.028812439999999e-02 1.112805170000000e-01 -6.723567820000000e-01 5.186278350000000e-01
            -6.708575860000000e-01 5.192616550000000e-01 8.029067640000000e-02 1.112966770000000e-01 8.956041570000001e-02 6.133843890000000e-02 8.563448999999999e-02 6.374283920000000e-02
            7.984018580000000e-02 1.123279820000000e-01 -6.723534160000000e-01 5.186317459999999e-01 8.562860230000000e-02 6.372823420000000e-02 9.391289390000000e-02 6.272254469999999e-02
21982485.3999999985 1.203357800000000e-01 5.376665970000000e-02 1.139268150000000e-01 5.508683510000000e-02 -5.301221310000001e-01 6.549639840000000e-01 1.065628880000000e-01 8.815337230000000e-02
            1.139334050000000e-01 5.510954150000000e-02 1.172176120000000e-01 5.281856960000000e-02 1.067573540000000e-01 8.705478899999999e-02 -5.317360150000000e-01 6.547091100000000e-01
            -5.301210890000000e-01 6.549767460000000e-01 1.067568080000000e-01 8.703434820000000e-02 1.183527770000000e-01 5.051748850000000e-02 1.134757150000000e-01 5.505434090000000e-02
            1.065634970000000e-01 8.817129170000000e-02 -5.317305130000000e-01 6.547065310000000e-01 1.134773250000000e-01 5.505541410000000e-02 1.227712550000000e-01 5.191764970000000e-02
22482068.3999999985 1.414052540000000e-01 3.148149900000000e-02 1.344909320000000e-01 3.509548440000000e-02 -3.651186000000000e-01 7.547304610000000e-01 1.243330020000000e-01 5.856122200000000e-02
            1.344947870000000e-01 3.508752340000000e-02 1.382659400000000e-01 3.055746370000000e-02 1.242358930000000e-01 5.742779150000000e-02 -3.667365100000000e-01 7.548378150000000e-01
            -3.651200130000000e-01 7.547351810000000e-01 1.242295900000000e-01 5.741956910000000e-02 1.388365700000000e-01 2.839839060000000e-02 1.340913000000000e-01 3.523931780000000e-02
            1.243223970000000e-01 5.854592220000000e-02 -3.667302980000000e-01 7.548462770000000e-01 1.340908140000000e-01 3.523172950000000e-02 1.433098100000000e-01 2.973543740000000e-02
22981651.3999999985 1.503037950000000e-01 2.566882040000000e-03 1.440028670000000e-01 8.384859329999999e-03 -1.837160690000000e-01 8.156826450000000e-01 1.330733220000000e-01 2.734360990000000e-02
            1.440033790000000e-01 8.392039909999999e-03 1.471405350000000e-01 1.658444950000000e-03 1.327239210000000e-01 2.629107080000000e-02 -1.852678710000000e-01 8.161662780000000e-01
            -1.837301620000000e-01 8.156890800000000e-01 1.327094110000000e-01 2.628602660000000e-02 1.473019130000000e-01 -1.152275720000000e-04 1.436989900000000e-01 8.680514239999999e-03
            1.330768390000000e-01 2.735270920000000e-02 -1.852797560000000e-01 8.161578950000000e-01 1.436881020000000e-01 8.694202460000000e-03 1.517978640000000e-01 1.148854010000000e-03
23481234.3999999985 1.455534890000000e-01 -2.721341990000000e-02 1.408010360000000e-01 -1.968961490000000e-02 6.479966150000000e-03 8.358097790000000e-01 1.344092380000000e-01 -2.684812650000000e-03
            1.408012180000000e-01 -1.968365500000000e-02 1.423989990000000e-01 -2.804562900000000e-02 1.338261620000000e-01 -3.633897750000000e-03 5.075341910000000e-03 8.366218160000000e-01
            6.467394410000000e-03 8.358080820000000e-01 1.338396920000000e-01 -3.637833540000000e-03 1.423652940000000e-01 -2.933723440000000e-02 1.406700090000000e-01 -1.927992690000000e-02
            1.344175620000000e-01 -2.690681850000000e-03 5.076575570000000e-03 8.366200350000000e-01 1.406769100000000e-01 -1.929765130000000e-02 1.468449110000000e-01 -2.811909490000000e-02
23980817.3000000007 1.280341420000000e-01 -5.194520250000000e-02 1.254581900000000e-01 -4.359398740000000e-02 1.976460180000000e-01 8.135951980000000e-01 1.305883340000000e-01 -3.052512160000000e-02
            1.254676390000000e-01 -4.360491420000000e-02 1.249147660000000e-01 -5.275347320000000e-02 1.298275240000000e-01 -3.133818720000000e-02 1.964806130000000e-01 8.147122120000000e-01
            1.976344420000000e-01 8.136116450000000e-01 1.298115030000000e-01 -3.133441910000000e-02 1.249341570000000e-01 -5.350040430000000e-02 1.255347270000000e-01 -4.319927560000000e-02
            1.305764700000000e-01 -3.052004640000000e-02 1.964722020000000e-01 8.147079420000000e-01 1.255184780000000e-01 -4.320610750000000e-02 1.293557820000000e-01 -5.233930690000000e-02
24480400.3000000007 1.009609110000000e-01 -6.648209240000000e-02 1.007347850000000e-01 -5.837215560000000e-02 3.810240850000000e-01 7.483857739999999e-01 1.231507840000000e-01 -5.673306390000000e-02
            1.007167030000000e-01 -5.837828590000000e-02 9.789923100000000e-02 -6.725846060000000e-02 1.222425620000000e-01 -5.737160110000000e-02 3.801398620000000e-01 7.497172620000000e-01
            3.810262730000000e-01 7.483656180000000e-01 1.222544890000000e-01 -5.736640620000000e-02 9.821638019999999e-02 -6.752489670000000e-02 1.009660030000000e-01 -5.802023510000000e-02
            1.231516070000000e-01 -5.673064130000000e-02 3.801344620000000e-01 7.497131030000000e-01 1.009751530000000e-01 -5.800331770000000e-02 1.025780830000000e-01 -6.639424280000000e-02
24979983.3000000007 6.965845140000000e-02 -6.719441170000000e-02 7.145016540000000e-02 -6.031406970000000e-02 5.466543680000000e-01 6.411060470000000e-01 1.122707480000000e-01 -8.250797150000000e-02
            7.146453680000001e-02 -6.030620710000000e-02 6.662880220000000e-02 -6.797867200000000e-02 1.112242100000000e-01 -8.295350100000000e-02 5.461109720000000e-01 6.426213970000000e-01
            5.466551790000000e-01 6.411048130000000e-01 1.112155570000000e-01 -8.295466740000000e-02 6.750325729999999e-02 -6.793433840000000e-02 7.187765000000000e-02 -6.009464630000000e-02
            1.122742970000000e-01 -8.250371230000000e-02 5.460989300000000e-01 6.426208950000000e-01 7.187526869999999e-02 -6.009723950000000e-02 7.180964700000000e-02 -6.677227360000000e-02
25479566.3000000007 4.099773230000000e-02 -5.317456070000000e-02 4.411907360000000e-02 -4.826218730000000e-02 6.837228490000000e-01 4.956162030000000e-01 9.637064030000000e-02 -1.085130690000000e-01
            4.414108190000000e-02 -4.828649430000000e-02 3.802437740000000e-02 -5.397842070000000e-02 9.522586900000000e-02 -1.087274150000000e-01 6.835508330000000e-01 4.972431590000000e-01
            6.837112970000000e-01 4.956027650000000e-01 9.523613390000001e-02 -1.087387390000000e-01 3.959380530000000e-02 -5.388186140000000e-02 4.466528140000000e-02 -4.824987770000000e-02
            9.636916619999999e-02 -1.084946200000000e-01 6.835611620000001e-01 4.972315670000000e-01 4.466037470000000e-02 -4.823204580000000e-02 4.381396370000000e-02 -5.270713670000000e-02
25979149.3000000007 2.191009370000000e-02 -2.701280530000000e-02 2.545016250000000e-02 -2.448421540000000e-02 7.819035360000000e-01 3.195844660000000e-01 7.319430150000000e-02 -1.334981550000000e-01
            2.544629950000000e-02 -2.448204130000000e-02 1.897321500000000e-02 -2.788170090000000e-02 7.193456340000000e-02 -1.334735530000000e-01 7.821224350000000e-01 3.211936980000000e-01
            7.819015860000000e-01 3.196042270000000e-01 7.195501209999999e-02 -1.334644420000000e-01 2.125372640000000e-02 -2.800863180000000e-02 2.601576240000000e-02 -2.468569570000000e-02
            7.319273079999999e-02 -1.335049800000000e-01 7.821204890000000e-01 3.212045150000000e-01 2.600845720000000e-02 -2.469284100000000e-02 2.543512760000000e-02 -2.676957740000000e-02
26478732.3000000007 1.735410840000000e-02 5.245718400000000e-03 2.031759380000000e-02 5.501394540000000e-03 8.334682690000000e-01 1.244780850000000e-01 4.125360860000000e-02 -1.541582840000000e-01
            2.030111610000000e-02 5.501626210000000e-03 1.443864460000000e-02 4.308238810000000e-03 3.997685110000000e-02 -1.538157190000000e-01 8.340414000000000e-01 1.259878050000000e-01
            8.334685050000000e-01 1.244932940000000e-01 3.998784030000000e-02 -1.538194290000000e-01 1.734846610000000e-02 3.626866670000000e-03 2.080660840000000e-02 5.018565670000000e-03
            4.125173590000000e-02 -1.541560120000000e-01 8.340728080000001e-01 1.259842270000000e-01 2.079488350000000e-02 5.011323770000000e-03 2.151333980000000e-02 4.970447910000000e-03
26978315.3000000007 2.851203290000000e-02 3.572837050000000e-02 3.000671230000000e-02 3.416717440000000e-02 8.351261820000000e-01 -7.594034049999999e-02 1.524019870000000e-03 -1.659944730000000e-01
            3.001033170000000e-02 3.416328960000000e-02 2.557003680000000e-02 3.475523210000000e-02 3.476996550000000e-04 -1.653104450000000e-01 8.360516370000000e-01 -7.463316640000001e-02
            8.351400150000000e-01 -7.594142700000001e-02 3.468340700000000e-04 -1.653072140000000e-01 2.892100140000000e-02 3.325197500000000e-02 3.035159210000000e-02 3.344841110000000e-02
            1.522735080000000e-03 -1.659817840000000e-01 8.360536280000000e-01 -7.462314220000001e-02 3.035787620000000e-02 3.345588940000000e-02 3.310800070000000e-02 3.466954150000000e-02
27477898.1999999993 5.231382450000000e-02 5.713991470000000e-02 5.182277130000000e-02 5.453926980000000e-02 7.885997259999999e-01 -2.680720040000000e-01 -4.220526340000000e-02 -1.653677570000000e-01
            5.181916960000000e-02 5.453587800000000e-02 4.934423220000000e-02 5.611743750000000e-02 -4.320039170000000e-02 -1.643988860000000e-01 7.897921480000000e-01 -2.670241320000000e-01
            7.886065270000000e-01 -2.680620070000000e-01 -4.319101550000000e-02 -1.643912820000000e-01 5.281962170000000e-02 5.364105150000000e-02 5.191359990000000e-02 5.368124640000000e-02
            -4.220918300000000e-02 -1.653635960000000e-01 7.897838520000000e-01 -2.670216080000000e-01 5.190023560000000e-02 5.368514250000000e-02 5.706157230000000e-02 5.510489470000000e-02
27977481.1999999993 8.266305610000001e-02 6.493702730000001e-02 8.004555660000000e-02 6.222831710000000e-02 6.995228420000000e-01 -4.406645120000000e-01 -8.461869240000000e-02 -1.512176880000000e-01
            8.005354090000000e-02 6.224163320000000e-02 7.963708400000000e-02 6.389975900000000e-02 -8.533225110000001e-02 -1.500097170000000e-01 7.008946480000000e-01 -4.399188830000000e-01
            6.995274500000001e-01 -4.406703420000000e-01 -8.533629020000000e-02 -1.500180490000000e-01 8.294655730000000e-02 6.042119670000000e-02 7.983422760000000e-02 6.132508860000000e-02
            -8.459814830000000e-02 -1.512410260000000e-01 7.009118519999999e-01 -4.399303400000000e-01 7.983624189999999e-02 6.131638920000000e-02 8.724534030000000e-02 6.189015170000000e-02
28477064.1999999993 1.125037860000000e-01 5.829720320000000e-02 1.080322630000000e-01 5.630224230000000e-02 5.754957350000000e-01 -5.856462540000000e-01 -1.206525690000000e-01 -1.253279550000000e-01
            1.080310760000000e-01 5.631922350000000e-02 1.094110530000000e-01 5.724488320000000e-02 -1.210450010000000e-01 -1.239745610000000e-01 5.770079520000000e-01 -5.852559810000000e-01
            5.754923690000000e-01 -5.856539970000000e-01 -1.210418590000000e-01 -1.239677940000000e-01 1.122320070000000e-01 5.279472720000000e-02 1.074873710000000e-01 5.545488570000000e-02
            -1.206695430000000e-01 -1.253233670000000e-01 5.770022550000000e-01 -5.852553320000000e-01 1.074891940000000e-01 5.545449510000000e-02 1.166167930000000e-01 5.427157810000000e-02
28976647.1999999993 1.356594940000000e-01 3.941522550000000e-02 1.299200820000000e-01 3.880284410000000e-02 4.245012360000000e-01 -6.977759340000000e-01 -1.471400070000000e-01 -9.141031170000000e-02
            1.299176050000000e-01 3.880133100000000e-02 1.325535670000000e-01 3.840211570000000e-02 -1.471787860000000e-01 -9.002283640000000e-02 4.260565010000000e-01 -6.977400170000000e-01
            4.245036850000000e-01 -6.977912100000000e-01 -1.471863220000000e-01 -9.001320300000000e-02 1.346007580000000e-01 3.312436090000000e-02 1.291528860000000e-01 3.811590190000000e-02
            -1.471239050000000e-01 -9.142524460000000e-02 4.260518000000000e-01 -6.977514660000000e-01 1.291419350000000e-01 3.810963590000000e-02 1.390360970000000e-01 3.455246910000000e-02
29476230.1999999993 1.478832390000000e-01 1.271623280000000e-02 1.416541900000000e-01 1.378697270000000e-02 2.541218420000000e-01 -7.735926130000000e-01 -1.631370520000000e-01 -5.365660680000000e-02
            1.416666740000000e-01 1.377731100000000e-02 1.447459160000000e-01 1.176619350000000e-02 -1.628369870000000e-01 -5.229269280000000e-02 2.556491990000000e-01 -7.739030260000000e-01
            2.541232840000000e-01 -7.736004030000000e-01 -1.628442400000000e-01 -5.230379460000000e-02 1.458073960000000e-01 5.843124540000000e-03 1.406786610000000e-01 1.331403680000000e-02
            -1.631323190000000e-01 -5.365161200000000e-02 2.556481460000000e-01 -7.738941270000000e-01 1.406803120000000e-01 1.329689570000000e-02 1.502684400000000e-01 7.225007710000000e-03
29975813.1999999993 1.471202320000000e-01 -1.631276290000000e-02 1.411974710000000e-01 -1.371477290000000e-02 7.163909320000000e-02 -8.105110900000000e-01 -1.696087300000000e-01 -1.543520000000000e-02
            1.412024660000000e-01 -1.370508500000000e-02 1.440004650000000e-01 -1.722711560000000e-02 -1.690257820000000e-01 -1.418078610000000e-02 7.304271250000000e-02 -8.111818230000000e-01
            7.162913770000000e-02 -8.105251540000000e-01 -1.690239490000000e-01 -1.421087750000000e-02 1.438914970000000e-01 -2.351077800000000e-02 1.401134630000000e-01 -1.393337080000000e-02
            -1.696063430000000e-01 -1.544842940000000e-02 7.303375170000000e-02 -8.111823280000000e-01 1.400979710000000e-01 -1.391468030000000e-02 1.483457890000000e-01 -2.219971170000000e-02
30475396.1999999993 1.336715540000000e-01 -4.198920370000000e-02 1.286566920000000e-01 -3.827100420000000e-02 -1.154784550000000e-01 -8.065703330000000e-01 -1.684756660000000e-01 2.134515360000000e-02
            1.286803440000000e-01 -3.827631520000000e-02 1.305576060000000e-01 -4.287396320000000e-02 -1.676534240000000e-01 2.243931220000000e-02 -1.142816160000000e-01 -8.075359950000000e-01
            -1.154920510000000e-01 -8.065851220000000e-01 -1.676384060000000e-01 2.244649060000000e-02 1.292053180000000e-01 -4.923742350000000e-02 1.275260480000000e-01 -3.822649530000000e-02
            -1.684780910000000e-01 2.137240970000000e-02 -1.142836680000000e-01 -8.075308830000000e-01 1.275076300000000e-01 -3.822405230000000e-02 1.336060040000000e-01 -4.798597750000000e-02
30974979.1000000015 1.100233700000000e-01 -5.908065860000000e-02 1.062826260000000e-01 -5.490629940000000e-02 -2.989205780000000e-01 -7.604445930000000e-01 -1.614001230000000e-01 5.644759290000000e-02
            1.062858310000000e-01 -5.489237460000000e-02 1.069548250000000e-01 -5.995156790000000e-02 -1.603419610000000e-01 5.734637420000000e-02 -2.979558660000000e-01 -7.616662730000000e-01
            -2.989136350000000e-01 -7.604388820000000e-01 -1.603635340000000e-01 5.734031010000000e-02 1.043079650000000e-01 -6.609205230000000e-02 1.051315300000000e-01 -5.458778990000000e-02
            -1.613916680000000e-01 5.645085180000000e-02 -2.979558920000000e-01 -7.616544740000000e-01 1.051263730000000e-01 -5.459249970000000e-02 1.086519360000000e-01 -6.484952770000001e-02
31474562.1000000015 8.087050200000000e-02 -6.365710630000000e-02 7.836460369999999e-02 -5.972953280000000e-02 -4.690754010000000e-01 -6.722184950000000e-01 -1.489080970000000e-01 9.044708650000000e-02
            7.836212160000000e-02 -5.972123560000000e-02 7.785798630000000e-02 -6.452698720000000e-02 -1.476714640000000e-01 9.111701640000000e-02 -4.684165290000000e-01 -6.736241890000000e-01
            -4.690672650000000e-01 -6.721981930000001e-01 -1.476742340000000e-01 9.112332419999999e-02 7.395213090000000e-02 -7.011097719999999e-02 7.725161400000000e-02 -5.912665830000000e-02
            -1.489116310000000e-01 9.045205210000000e-02 -4.684046380000000e-01 -6.736349870000000e-01 7.726633519999999e-02 -5.913996220000000e-02 7.822817340000000e-02 -6.886751190000000e-02
31974145.1000000015 5.250108300000000e-02 -5.411795020000000e-02 5.090974520000000e-02 -5.102197200000000e-02 -6.153528770000000e-01 -5.445397470000000e-01 -1.300259090000000e-01 1.237351470000000e-01
            5.090837670000000e-02 -5.102231620000000e-02 4.954076230000000e-02 -5.500923790000000e-02 -1.286309220000000e-01 1.241178330000000e-01 -6.150420210000000e-01 -5.460662650000000e-01
            -6.153530780000001e-01 -5.445476010000000e-01 -1.286584730000000e-01 1.241304250000000e-01 4.453935820000000e-02 -5.971200760000000e-02 4.991116430000000e-02 -5.018617040000000e-02
            -1.300298170000000e-01 1.237188940000000e-01 -6.150307320000000e-01 -5.460767760000000e-01 4.991038130000000e-02 -5.017255870000000e-02 4.875156540000000e-02 -5.845745650000000e-02
32473728.1000000015 3.174940500000000e-02 -3.211486530000000e-02 3.045088330000000e-02 -3.021357410000000e-02 -7.271872750000000e-01 -3.836675800000000e-01 -1.028676780000000e-01 1.551276740000000e-01
            3.045583100000000e-02 -3.021672470000000e-02 2.882148490000000e-02 -3.303335210000000e-02 -1.013628810000000e-01 1.552214210000000e-01 -7.272443870000000e-01 -3.852403680000000e-01
            -7.271936550000000e-01 -3.836602530000000e-01 -1.013721630000000e-01 1.552280470000000e-01 2.293241700000000e-02 -3.660969530000000e-02 2.962262280000000e-02 -2.909876060000000e-02
            -1.028699640000000e-01 1.551491060000000e-01 -7.272441589999999e-01 -3.852239490000000e-01 2.962326580000000e-02 -2.909634680000000e-02 2.708174990000000e-02 -3.530037400000000e-02
32973311.1000000015 2.392984700000000e-02 -2.730072730000000e-03 2.224530870000000e-02 -2.045775790000000e-03 -7.959353910000000e-01 -1.997195480000000e-01 -6.607611870000001e-02 1.815748650000000e-01
            2.222731680000000e-02 -2.036495620000000e-03 2.102513370000000e-02 -3.694457760000000e-03 -6.455436060000000e-02 1.813005110000000e-01 -7.963680350000000e-01 -2.012030680000000e-01
            -7.959392199999999e-01 -1.997152430000000e-01 -6.455168610000001e-02 1.812830860000000e-01 1.454121770000000e-02 -5.919862910000000e-03 2.168074140000000e-02 -6.968730180000000e-04
            -6.606638580000000e-02 1.815519930000000e-01 -7.963649630000000e-01 -2.011964300000000e-01 2.167281760000000e-02 -7.025243540000000e-04 1.867624800000000e-02 -4.514818360000000e-03
33472894.1000000015 3.113578980000000e-02 2.672941580000000e-02 2.839493210000000e-02 2.653106850000000e-02 -8.169116080000000e-01 -5.530813980000000e-03 -2.037279420000000e-02 1.985341710000000e-01
            2.840023170000000e-02 2.653889500000000e-02 2.818389740000000e-02 2.571308120000000e-02 -1.892788080000000e-02 1.978715860000000e-01 -8.176729060000000e-01 -6.845221280000000e-03
            -8.169171030000000e-01 -5.520621130000000e-03 -1.891631010000000e-02 1.978624680000000e-01 2.149411580000000e-02 2.495175260000000e-02 2.815643410000000e-02 2.803892410000000e-02
            -2.037933370000000e-02 1.985375520000000e-01 -8.176694140000000e-01 -6.865744700000000e-03 2.816120870000000e-02 2.805211230000000e-02 2.564293940000000e-02 2.642668230000000e-02
33972477.1000000015 5.129460930000000e-02 4.895660180000000e-02 4.710883000000000e-02 4.848328670000000e-02 -7.901763660000000e-01 1.854935220000000e-01 3.072629120000000e-02 2.020584640000000e-01
            4.712948260000000e-02 4.847325920000000e-02 4.833728770000000e-02 4.789504070000000e-02 3.201504250000000e-02 2.010124870000000e-01 -7.912142440000000e-01 1.843823780000000e-01
            -7.901880470000000e-01 1.854950020000000e-01 3.200792080000000e-02 2.010404430000000e-01 4.175820510000000e-02 4.863035740000000e-02 4.728751990000000e-02 5.006225960000000e-02
            3.072984440000000e-02 2.020457330000000e-01 -7.912202210000000e-01 1.843742780000000e-01 4.729170400000000e-02 5.005605060000000e-02 4.595193870000000e-02 5.016165490000000e-02
34472060.1000000015 7.911306500000000e-02 5.888353050000000e-02 7.341558810000000e-02 5.888968440000000e-02 -7.200060790000000e-01 3.616483570000000e-01 8.182419660000000e-02 1.903646780000000e-01
            7.341815240000001e-02 5.887779910000000e-02 7.612226720000000e-02 5.779152910000000e-02 8.282468920000000e-02 1.890272330000000e-01 -7.212718460000000e-01 3.608210030000000e-01
            -7.200118720000001e-01 3.616708870000000e-01 8.280739240000000e-02 1.890425800000000e-01 7.001316850000000e-02 5.993499040000000e-02 7.399480120000000e-02 6.040827740000000e-02
            8.184335399999999e-02 1.903670010000000e-01 -7.212753990000000e-01 3.608302050000000e-01 7.398180529999999e-02 6.039947640000000e-02 7.426607420000000e-02 6.149796980000000e-02
34971643.0000000000 1.078380720000000e-01 5.483548740000000e-02 1.009003070000000e-01 5.605757740000000e-02 -6.130690210000000e-01 5.141921070000000e-01 1.273576040000000e-01 1.646242630000000e-01
            1.009117250000000e-01 5.605835750000000e-02 1.048081210000000e-01 5.375604520000000e-02 1.279870940000000e-01 1.630946270000000e-01 -6.144660170000000e-01 5.136808570000000e-01
            -6.130607050000000e-01 5.141940100000000e-01 1.279899340000000e-01 1.630956180000000e-01 9.946047220000000e-02 5.711790420000000e-02 1.018569950000000e-01 5.738746770000000e-02
            1.273535410000000e-01 1.646352640000000e-01 -6.144810520000000e-01 5.136554760000001e-01 1.018591130000000e-01 5.739527770000000e-02 1.038001600000000e-01 5.869090390000000e-02
35471226.0000000000 1.312066770000000e-01 3.840345850000000e-02 1.236504400000000e-01 4.141639760000000e-02 -4.767648970000000e-01 6.371070870000000e-01 1.632646830000000e-01 1.282495300000000e-01
            1.236485670000000e-01 4.141273650000000e-02 1.281460840000000e-01 3.736101420000000e-02 1.635106020000000e-01 1.265909050000000e-01 -4.782486190000000e-01 6.369317580000000e-01
            -4.767534160000000e-01 6.370960610000000e-01 1.635046310000000e-01 1.265993240000000e-01 1.238713620000000e-01 4.174627490000000e-02 1.249065850000000e-01 4.246761360000000e-02
            1.632737510000000e-01 1.282501280000000e-01 -4.782474010000000e-01 6.369346780000000e-01 1.249024010000000e-01 4.247691920000000e-02 1.282451600000000e-01 4.328707680000000e-02
35970809.0000000000 1.446115270000000e-01 1.350112750000000e-02 1.372478650000000e-01 1.853947350000000e-02 -3.183215700000000e-01 7.263186659999999e-01 1.877445310000000e-01 8.550604890000001e-02
            1.372485480000000e-01 1.853790360000000e-02 1.415045130000000e-01 1.246581180000000e-02 1.875730330000000e-01 8.384606940000000e-02 -3.197977790000000e-01 7.265054869999999e-01
            -3.183081210000000e-01 7.263317590000000e-01 1.875829210000000e-01 8.384908440000000e-02 1.384724310000000e-01 1.759511810000000e-02 1.387350940000000e-01 1.921940130000000e-02
            1.877296070000000e-01 8.549547430000000e-02 -3.197940220000000e-01 7.264777230000000e-01 1.387299040000000e-01 1.921585370000000e-02 1.428914500000000e-01 1.908952680000000e-02
36470392.0000000000 1.455528910000000e-01 -1.473485640000000e-02 1.392962000000000e-01 -7.811947470000000e-03 -1.446968540000000e-01 7.788360560000001e-01 2.009614320000000e-01 4.026528990000000e-02
            1.392851430000000e-01 -7.818487240000000e-03 1.424726590000000e-01 -1.571131480000000e-02 2.004305370000000e-01 3.871448240000000e-02 -1.460966620000000e-01 7.793229320000000e-01
            -1.447059890000000e-01 7.788259520000000e-01 2.004335330000000e-01 3.871732690000000e-02 1.407967790000000e-01 -1.013302370000000e-02 1.409017220000000e-01 -7.514750150000000e-03
            2.009698430000000e-01 4.027709330000000e-02 -1.460979160000000e-01 7.793329430000000e-01 1.409039800000000e-01 -7.503547900000000e-03 1.452298440000000e-01 -8.715146050000001e-03
36969975.0000000000 1.338524420000000e-01 -4.065919780000000e-02 1.294603410000000e-01 -3.238094180000000e-02 3.696149500000000e-02 7.920788160000000e-01 2.043768450000000e-01 -4.845129470000000e-03
            1.294520730000000e-01 -3.238168580000000e-02 1.307844480000000e-01 -4.160372500000000e-02 2.035230140000000e-01 -6.235838550000000e-03 3.570584850000000e-02 7.928820240000000e-01
            3.696254810000000e-02 7.920890650000000e-01 2.035238730000000e-01 -6.227678460000000e-03 1.305790370000000e-01 -3.594525520000000e-02 1.310652850000000e-01 -3.247777820000000e-02
            2.043855160000000e-01 -4.833335220000000e-03 3.572613940000000e-02 7.928828930000000e-01 1.310657140000000e-01 -3.249030960000000e-02 1.349501260000000e-01 -3.457448310000000e-02
37469558.0000000000 1.115394450000000e-01 -5.898941870000000e-02 1.094747780000000e-01 -5.018505420000000e-02 2.187536620000000e-01 7.642207700000000e-01 1.995508550000000e-01 -4.875333770000000e-02
            1.094865270000000e-01 -5.017586070000000e-02 1.084997900000000e-01 -5.992282400000000e-02 1.984019530000000e-01 -4.993169370000000e-02 2.177006040000000e-01 7.652771030000000e-01
            2.187421980000000e-01 7.642220760000000e-01 1.984091590000000e-01 -4.993617800000000e-02 1.097181420000000e-01 -5.451986930000000e-02 1.110125820000000e-01 -5.064493950000000e-02
            1.995481220000000e-01 -4.877143370000000e-02 2.177211990000000e-01 7.652902770000000e-01 1.110180210000000e-01 -5.064190450000000e-02 1.140497890000000e-01 -5.316760600000000e-02
37969141.0000000000 8.281823930000000e-02 -6.552240680000000e-02 8.319556790000000e-02 -5.712432880000000e-02 3.914724090000000e-01 6.945482470000000e-01 1.871874570000000e-01 -9.141676810000000e-02
            8.320176780000001e-02 -5.712990500000000e-02 7.982405970000001e-02 -6.643774490000000e-02 1.858119190000000e-01 -9.234515650000000e-02 3.907165920000000e-01 6.958237860000001e-01
            3.914770970000000e-01 6.945448480000000e-01 1.858177960000000e-01 -9.233320200000000e-02 8.234353100000000e-02 -6.164211790000000e-02 8.457121300000001e-02 -5.795801740000000e-02
            1.871748160000000e-01 -9.142473930000000e-02 3.907211970000000e-01 6.958247000000000e-01 8.457516070000000e-02 -5.794877690000000e-02 8.659613630000000e-02 -6.031793110000000e-02
38468723.8999999985 5.362332220000000e-02 -5.812036970000000e-02 5.615238070000000e-02 -5.109028970000000e-02 5.448111720000000e-01 5.846796190000000e-01 1.667646920000000e-01 -1.327555950000000e-01
            5.616979860000000e-02 -5.109004600000000e-02 5.069860120000000e-02 -5.905618440000000e-02 1.651794190000000e-01 -1.333754240000000e-01 5.443643670000000e-01 5.860924120000000e-01
            5.447987560000001e-01 5.846728320000000e-01 1.651796460000000e-01 -1.333911490000000e-01 5.429794160000000e-02 -5.519391550000000e-02 5.728047150000000e-02 -5.223158810000000e-02
            1.667661970000000e-01 -1.327574380000000e-01 5.443760660000000e-01 5.861062660000000e-01 5.729145220000000e-02 -5.222693850000000e-02 5.848282600000000e-02 -5.383271290000000e-02
38968306.8999999985 3.074318450000000e-02 -3.774101450000000e-02 3.475140370000000e-02 -3.281557430000000e-02 6.680680350000000e-01 4.395545000000000e-01 1.367401860000000e-01 -1.716055630000000e-01
            3.474922460000000e-02 -3.281508990000000e-02 2.783731950000000e-02 -3.871266150000000e-02 1.350255190000000e-01 -1.718487100000000e-01 6.679613180000000e-01 4.410515140000000e-01
            6.680590080000000e-01 4.395697200000000e-01 1.350227670000000e-01 -1.718556420000000e-01 3.221182440000000e-02 -3.599679290000000e-02 3.555680420000000e-02 -3.420511490000000e-02
            1.367635550000000e-01 -1.715990090000000e-01 6.679671180000000e-01 4.410555870000000e-01 3.554812150000000e-02 -3.418785080000000e-02 3.635292460000000e-02 -3.460071930000000e-02
39467889.8999999985 1.985778220000000e-02 -8.723988250000000e-03 2.442647300000000e-02 -6.308998250000000e-03 7.519540850000000e-01 2.680024970000000e-01 9.590801380000000e-02 -2.048782370000000e-01
            2.444779140000000e-02 -6.297917010000000e-03 1.697772750000000e-02 -9.747579160000000e-03 9.411900660000000e-02 -2.047294960000000e-01 7.522248090000000e-01 2.694770170000000e-01
            7.519498620000000e-01 2.680075470000000e-01 9.410278830000000e-02 -2.047102400000000e-01 2.176145460000000e-02 -8.324320830000001e-03 2.484365150000000e-02 -7.827180700000000e-03
            9.589734760000000e-02 -2.048683250000000e-01 7.522151110000000e-01 2.694732780000000e-01 2.483181850000000e-02 -7.826133870000000e-03 2.589629390000000e-02 -6.859809760000000e-03
39967472.8999999985 2.386516050000000e-02 2.202731540000000e-02 2.802501340000000e-02 2.195915990000000e-02 7.905894120000000e-01 8.191536889999999e-02 4.483497260000000e-02 -2.280700030000000e-01
            2.801130790000000e-02 2.195825760000000e-02 2.096712750000000e-02 2.096358330000000e-02 4.310112030000000e-02 -2.274689960000000e-01 7.911863160000000e-01 8.325537970000001e-02
            7.905802320000000e-01 8.191938960000000e-02 4.308749680000000e-02 -2.274735530000000e-01 2.580857760000000e-02 2.108818450000000e-02 2.798746870000000e-02 2.040432190000000e-02
            4.482692340000000e-02 -2.280813540000000e-01 7.911882460000000e-01 8.326259620000000e-02 2.799399270000000e-02 2.040836720000000e-02 2.993881930000000e-02 2.264620200000000e-02
40467055.8999999985 4.161516520000000e-02 4.711660230000000e-02 4.443919180000000e-02 4.495061220000000e-02 7.826585880000000e-01 -1.057264500000000e-01 -1.316861530000000e-02 -2.368927310000000e-01
            4.443903980000000e-02 4.497097800000000e-02 3.870523290000000e-02 4.599653740000000e-02 -1.473562170000000e-02 -2.358570320000000e-01 7.835569070000000e-01 -1.045622290000000e-01
            7.826539010000000e-01 -1.057345000000000e-01 -1.472359810000000e-02 -2.358576060000000e-01 4.322366990000000e-02 4.494167920000000e-02 4.399681050000000e-02 4.350995080000000e-02
            -1.315264320000000e-02 -2.368805980000000e-01 7.835444930000000e-01 -1.045725910000000e-01 4.399870460000000e-02 4.351604390000000e-02 4.739356280000000e-02 4.656680950000000e-02
40966638.8999999985 6.844635830000000e-02 6.084796630000000e-02 6.934373610000000e-02 5.736587660000000e-02 7.310668270000000e-01 -2.830751510000000e-01 -7.261877980000001e-02 -2.289272060000000e-01
            6.932287010000000e-02 5.735944320000000e-02 6.549265070000000e-02 5.971764610000000e-02 -7.389635290000000e-02 -2.275200790000000e-01 7.322014340000000e-01 -2.821602190000000e-01
            7.310557720000000e-01 -2.830787450000000e-01 -7.389512140000000e-02 -2.275149730000000e-01 6.949604190000000e-02 5.768361660000000e-02 6.855815580000001e-02 5.615090170000000e-02
            -7.261158280000000e-02 -2.289234720000000e-01 7.321750790000000e-01 -2.821750970000000e-01 6.856067809999999e-02 5.612988960000000e-02 7.370636820000000e-02 5.932835300000000e-02
41466221.8999999985 9.795799380000000e-02 6.080342020000000e-02 9.659400540000000e-02 5.689196060000000e-02 6.414787239999999e-01 -4.408543540000000e-01 -1.275412170000000e-01 -2.047152280000000e-01
            9.660700610000000e-02 5.688732240000000e-02 9.496741920000000e-02 5.968564960000000e-02 -1.284415960000000e-01 -2.030476530000000e-01 6.427837020000000e-01 -4.402084010000000e-01
            6.414677320000000e-01 -4.408473970000000e-01 -1.284344530000000e-01 -2.030471940000000e-01 9.820691970000001e-02 5.689307550000000e-02 9.560621210000000e-02 5.596561340000000e-02
            -1.275533850000000e-01 -2.047290230000000e-01 6.427837260000000e-01 -4.402266010000000e-01 9.560658730000000e-02 5.596353060000000e-02 1.024871700000000e-01 5.854072500000000e-02
41965804.7999999970 1.236667800000000e-01 4.782377160000000e-02 1.202315270000000e-01 4.435998540000000e-02 5.206958110000000e-01 -5.724555370000000e-01 -1.731129210000000e-01 -1.672959470000000e-01
            1.202342590000000e-01 4.435960570000000e-02 1.206314580000000e-01 4.669238590000000e-02 -1.735666430000000e-01 -1.654646400000000e-01 5.220921140000000e-01 -5.721408690000001e-01
            5.206853830000000e-01 -5.724471670000000e-01 -1.735762210000000e-01 -1.654494180000000e-01 1.230405630000000e-01 4.342069240000000e-02 1.191062070000000e-01 4.377233720000000e-02
            -1.731234140000000e-01 -1.673035310000000e-01 5.220753080000000e-01 -5.721391750000000e-01 1.191142440000000e-01 4.378132790000000e-02 1.273891200000000e-01 4.502207910000000e-02
42465387.7999999970 1.405806360000000e-01 2.520775570000000e-02 1.355679000000000e-01 2.295247270000000e-02 3.754251230000000e-01 -6.733046480000000e-01 -2.066367320000000e-01 -1.209763890000000e-01
            1.355697160000000e-01 2.294772240000000e-02 1.375107480000000e-01 2.410081500000000e-02 -2.066448700000000e-01 -1.190963360000000e-01 3.768737100000000e-01 -6.733285970000000e-01
            3.754329420000000e-01 -6.733040290000000e-01 -2.066308820000000e-01 -1.190780300000000e-01 1.391028030000000e-01 2.054998950000000e-02 1.344353960000000e-01 2.268637810000000e-02
            -2.066471660000000e-01 -1.209770960000000e-01 3.768689740000000e-01 -6.733286900000000e-01 1.344285190000000e-01 2.267676410000000e-02 1.434801240000000e-01 2.212486580000000e-02
42964970.7999999970 1.456864320000000e-01 -2.194358500000000e-03 1.398518720000000e-01 -2.796463860000000e-03 2.122802160000000e-01 -7.399314440000000e-01 -2.275288380000000e-01 -6.999625740000000e-02
            1.398588750000000e-01 -2.801596180000000e-03 1.426217020000000e-01 -3.255979590000000e-03 -2.271121540000000e-01 -6.817226400000000e-02 2.136796100000000e-01 -7.402679220000000e-01
            2.122950370000000e-01 -7.399301560000000e-01 -2.271181630000000e-01 -6.818401690000001e-02 1.434067350000000e-01 -6.883185470000000e-03 1.387776010000000e-01 -2.800909170000000e-03
            -2.275286640000000e-01 -7.000711710000000e-02 2.136784710000000e-01 -7.402706730000000e-01 1.387831220000000e-01 -2.801725020000000e-03 1.477935140000000e-01 -5.368207100000000e-03
43464553.7999999970 1.382030340000000e-01 -2.891103980000000e-02 1.323780540000000e-01 -2.782440510000000e-02 3.795765930000000e-02 -7.693871520000000e-01 -2.367101480000000e-01 -1.759118710000000e-02
            1.323734460000000e-01 -2.781215920000000e-02 1.351615950000000e-01 -2.993942010000000e-02 -2.359020670000000e-01 -1.591033430000000e-02 3.921059670000000e-02 -7.700288260000000e-01
            3.794948120000000e-02 -7.693844790000000e-01 -2.358918900000000e-01 -1.590712890000000e-02 1.352045900000000e-01 -3.349846200000000e-02 1.314093880000000e-01 -2.759172690000000e-02
            -2.367176210000000e-01 -1.758547230000000e-02 3.922098930000000e-02 -7.700287190000000e-01 1.314112840000000e-01 -2.760430540000000e-02 1.395616050000000e-01 -3.201571550000000e-02
43964136.7999999970 1.195585690000000e-01 -4.960143350000000e-02 1.144407930000000e-01 -4.708873170000000e-02 -1.401829950000000e-01 -7.592190580000000e-01 -2.355504010000000e-01 3.443495590000000e-02
            1.144500430000000e-01 -4.708565730000000e-02 1.165224400000000e-01 -5.059962410000000e-02 -2.343917550000000e-01 3.589097620000000e-02 -1.390877170000000e-01 -7.601375110000000e-01
            -1.401888930000000e-01 -7.592260110000000e-01 -2.344060190000000e-01 3.590070780000000e-02 1.159373000000000e-01 -5.391600030000000e-02 1.136190170000000e-01 -4.672510150000000e-02
            -2.355532060000000e-01 3.444090840000000e-02 -1.390887830000000e-01 -7.601524160000001e-01 1.136281600000000e-01 -4.672950730000000e-02 1.202398960000000e-01 -5.248554990000000e-02
44463719.7999999970 9.330207550000000e-02 -5.977040900000000e-02 8.944586359999999e-02 -5.641108180000000e-02 -3.134153020000000e-01 -7.080247680000000e-01 -2.249131920000000e-01 8.537873120000000e-02
            8.944355760000000e-02 -5.642062240000000e-02 9.031333300000000e-02 -6.074878030000000e-02 -2.234553030000000e-01 8.657649539999999e-02 -3.125682610000000e-01 -7.091728400000000e-01
            -3.134194190000000e-01 -7.080333060000000e-01 -2.234502030000000e-01 8.657280710000000e-02 8.915636110000000e-02 -6.376191880000000e-02 8.875819940000000e-02 -5.596819790000000e-02
            -2.249123310000000e-01 8.538083370000001e-02 -3.125641320000000e-01 -7.091831170000000e-01 8.875645470000000e-02 -5.595443680000000e-02 9.341839970000000e-02 -6.234954730000000e-02
44963302.7999999970 6.488363090000000e-02 -5.670953520000000e-02 6.248600030000000e-02 -5.326702280000000e-02 -4.717460260000000e-01 -6.163796370000000e-01 -2.045597940000000e-01 1.348208140000000e-01
            6.246429870000000e-02 -5.326801800000000e-02 6.195265880000000e-02 -5.770207250000000e-02 -2.028317680000000e-01 1.356844910000000e-01 -4.712129880000000e-01 -6.177071840000000e-01
            -4.717480970000000e-01 -6.163854110000000e-01 -2.028217040000000e-01 1.356852930000000e-01 6.034909170000000e-02 -6.031567720000000e-02 6.190638630000000e-02 -5.272261410000000e-02
            -2.045468610000000e-01 1.348148710000000e-01 -4.711927440000000e-01 -6.177013110000000e-01 6.190842490000000e-02 -5.272769780000000e-02 6.452847570000000e-02 -5.890691550000000e-02
45462885.7000000030 4.081939490000000e-02 -4.052160620000000e-02 3.971759100000000e-02 -3.769782780000000e-02 -6.045510610000000e-01 -4.879022480000000e-01 -1.732663320000000e-01 1.814576730000000e-01
            3.970023450000000e-02 -3.769880400000000e-02 3.792690750000000e-02 -4.154373590000000e-02 -1.713534540000000e-01 1.819056360000000e-01 -6.043206830000000e-01 -4.893197730000000e-01
            -6.045482080000000e-01 -4.879279350000000e-01 -1.713421810000000e-01 1.819242010000000e-01 3.598563260000000e-02 -4.372621070000000e-02 3.925426280000000e-02 -3.710943240000000e-02
            -1.732575440000000e-01 1.814497470000000e-01 -6.043224830000000e-01 -4.893296070000000e-01 3.926492300000000e-02 -3.710594870000000e-02 4.010049420000000e-02 -4.227913240000000e-02
45962468.7000000030 2.712858100000000e-02 -1.461369210000000e-02 2.682312800000000e-02 -1.298523670000000e-02 -7.020224890000000e-01 -3.300514330000000e-01 -1.298654640000000e-01 2.222693670000000e-01
            2.680895130000000e-02 -1.300020060000000e-02 2.425866340000000e-02 -1.568738770000000e-02 -1.278347360000000e-01 2.222739460000000e-01 -7.021366200000000e-01 -3.314922070000000e-01
            -7.020104160000000e-01 -3.300658820000000e-01 -1.278437360000000e-01 2.222750650000000e-01 2.204629810000000e-02 -1.738486810000000e-02 2.650094870000000e-02 -1.235415430000000e-02
            -1.298589530000000e-01 2.222640570000000e-01 -7.021366250000000e-01 -3.314952220000000e-01 2.649415400000000e-02 -1.235014550000000e-02 2.613504280000000e-02 -1.586617200000000e-02
46462051.7000000030 2.737858890000000e-02 1.478928000000000e-02 2.721658310000000e-02 1.492199110000000e-02 -7.571638660000000e-01 -1.536289180000000e-01 -7.475203790000000e-02 2.527853300000000e-01
            2.722694130000000e-02 1.492310600000000e-02 2.452522240000000e-02 1.367427560000000e-02 -7.275063090000000e-02 2.522862760000000e-01 -7.576147180000000e-01 -1.549725810000000e-01
            -7.571664130000000e-01 -1.536324990000000e-01 -7.275436350000000e-02 2.522944530000000e-01 2.217873210000000e-02 1.244487130000000e-02 2.702290070000000e-02 1.561284710000000e-02
            -7.475246820000001e-02 2.527802460000000e-01 -7.576088170000000e-01 -1.549784730000000e-01 2.703003680000000e-02 1.561636900000000e-02 2.625011040000000e-02 1.404313440000000e-02
46961634.7000000030 4.150432040000000e-02 4.043033680000000e-02 4.074067480000000e-02 3.913740840000000e-02 -7.672266360000000e-01 2.889703850000000e-02 -1.094698500000000e-02 2.682757440000000e-01
            4.074525760000000e-02 3.913368670000000e-02 3.860651980000000e-02 3.928230570000000e-02 -9.085705070000000e-03 2.673165020000000e-01 -7.679795590000000e-01 2.771808200000000e-02
            -7.672275240000000e-01 2.891070610000000e-02 -9.086164280000000e-03 2.673003430000000e-01 3.622611880000000e-02 3.854645930000000e-02 4.070681720000000e-02 3.982959120000000e-02
            -1.094540930000000e-02 2.682745360000000e-01 -7.679659420000000e-01 2.771440280000000e-02 4.068926930000000e-02 3.983824360000000e-02 4.034059910000000e-02 4.020790310000000e-02
47461217.7000000030 6.572012169999999e-02 5.627416850000000e-02 6.372619810000001e-02 5.390040860000000e-02 -7.338142860000000e-01 2.056491820000000e-01 5.619092520000000e-02 2.657238810000000e-01
            6.373322240000000e-02 5.391136120000000e-02 6.278968420000000e-02 5.507545910000000e-02 5.775460490000000e-02 2.643048340000000e-01 -7.348247600000000e-01 2.046795000000000e-01
            -7.338184250000001e-01 2.056348210000000e-01 5.775545850000000e-02 2.642976100000000e-01 6.048150740000000e-02 5.481485320000000e-02 6.386145360000001e-02 5.458413070000000e-02
            5.618264320000000e-02 2.657110820000000e-01 -7.348115160000001e-01 2.046731800000000e-01 6.385487800000000e-02 5.458271240000000e-02 6.464818579999999e-02 5.652587930000000e-02
47960800.7000000030 9.403854030000000e-02 5.909856500000000e-02 9.042530070000000e-02 5.627456070000000e-02 -6.615838429999999e-01 3.668203940000000e-01 1.202852280000000e-01 2.448768330000000e-01
            9.041696690000001e-02 5.628057140000000e-02 9.107809579999999e-02 5.790833960000000e-02 1.214783400000000e-01 2.430964000000000e-01 -6.627615900000000e-01 3.660956170000000e-01
            -6.615785749999999e-01 3.668040260000000e-01 1.214749040000000e-01 2.430934150000000e-01 8.893227250000001e-02 5.803492310000000e-02 9.072737979999999e-02 5.688558900000000e-02
            1.202914690000000e-01 2.448644000000000e-01 -6.627777910000000e-01 3.660849350000000e-01 9.072488669999999e-02 5.687321290000000e-02 9.317461330000000e-02 5.974623490000000e-02
48460383.7000000030 1.201308560000000e-01 4.896562920000000e-02 1.147716810000000e-01 4.643390670000000e-02 -5.566329400000000e-01 5.053119290000000e-01 1.758047460000000e-01 2.081893240000000e-01
            1.147865960000000e-01 4.642151110000000e-02 1.171127720000000e-01 4.776527430000000e-02 1.765176100000000e-01 2.062129200000000e-01 -5.579328030000000e-01 5.048706330000000e-01
            -5.566251260000000e-01 5.053084020000000e-01 1.765185930000000e-01 2.062119330000000e-01 1.152447860000000e-01 4.822373870000000e-02 1.152203610000000e-01 4.689118560000000e-02
            1.757952790000000e-01 2.082157600000000e-01 -5.579229410000000e-01 5.048653090000000e-01 1.152263710000000e-01 4.688714270000000e-02 1.195238540000000e-01 4.994617940000000e-02
48959966.6000000015 1.387068560000000e-01 2.858202140000000e-02 1.318610110000000e-01 2.702606780000000e-02 -4.252576980000000e-01 6.160521440000000e-01 2.190897370000000e-01 1.599294110000000e-01
            1.318554920000000e-01 2.702707550000000e-02 1.356700180000000e-01 2.742744670000000e-02 2.192903800000000e-01 1.578290890000000e-01 -4.266183350000000e-01 6.159425970000000e-01
            -4.252557170000000e-01 6.160604040000000e-01 2.192941050000000e-01 1.578542650000000e-01 1.341089190000000e-01 2.807002330000000e-02 1.324051090000000e-01 2.731202330000000e-02
            2.190874430000000e-01 1.599278880000000e-01 -4.266152460000000e-01 6.159336380000000e-01 1.323884980000000e-01 2.730127670000000e-02 1.384078450000000e-01 2.975762610000000e-02
49459549.6000000015 1.463709990000000e-01 2.357345260000000e-03 1.385090730000000e-01 2.317627230000000e-03 -2.736689070000000e-01 6.952119460000000e-01 2.487082910000000e-01 1.045713890000000e-01
            1.385247560000000e-01 2.308341910000000e-03 1.433146980000000e-01 1.228560480000000e-03 2.484429580000000e-01 1.024909840000000e-01 -2.749949090000000e-01 6.954058430000000e-01
            -2.736552610000000e-01 6.951886800000000e-01 2.484426100000000e-01 1.024853280000000e-01 1.420855080000000e-01 1.983774310000000e-03 1.390726200000000e-01 2.360756520000000e-03
            2.486951890000000e-01 1.045768040000000e-01 -2.750077830000000e-01 6.953962360000000e-01 1.390936400000000e-01 2.354293390000000e-03 1.464257280000000e-01 3.590846910000000e-03
49959132.6000000015 1.417978170000000e-01 -2.450414910000000e-02 1.336322200000000e-01 -2.275766360000000e-02 -1.080915990000000e-01 7.394724270000000e-01 2.649705670000000e-01 4.587683140000000e-02
            1.336307740000000e-01 -2.277216800000000e-02 1.387634270000000e-01 -2.558713250000000e-02 2.642501830000000e-01 4.392279930000000e-02 -1.093537670000000e-01 7.399697920000000e-01
            -1.080687910000000e-01 7.394722110000000e-01 2.642625090000000e-01 4.392188880000000e-02 1.378439290000000e-01 -2.487739620000000e-02 1.341234350000000e-01 -2.296352990000000e-02
            2.649667580000000e-01 4.587539040000000e-02 -1.093464620000000e-01 7.399722810000000e-01 1.341309860000000e-01 -2.295352080000000e-02 1.421666380000000e-01 -2.332694740000000e-02
50458715.6000000015 1.258860730000000e-01 -4.671879520000000e-02 1.180751200000000e-01 -4.327026490000000e-02 6.459193360000000e-02 7.460016870000000e-01 2.689335080000000e-01 -1.358879770000000e-02
            1.180752080000000e-01 -4.326260220000000e-02 1.228677670000000e-01 -4.778156790000000e-02 2.677911370000000e-01 -1.534303760000000e-02 6.344572490000000e-02 7.467709090000000e-01
            6.456828910000000e-02 7.459963190000000e-01 2.678052180000000e-01 -1.535523060000000e-02 1.221748360000000e-01 -4.724047480000000e-02 1.184263060000000e-01 -4.366834420000000e-02
            2.689132210000000e-01 -1.359470850000000e-02 6.345365900000000e-02 7.467792410000000e-01 1.184118340000000e-01 -4.366001710000000e-02 1.264575180000000e-01 -4.572167930000000e-02
50958298.6000000015 1.015620380000000e-01 -5.968873240000000e-02 9.469900360000000e-02 -5.483691570000000e-02 2.362073280000000e-01 7.127514960000000e-01 2.614486340000000e-01 -7.249652560000000e-02
            9.470591500000000e-02 -5.482359010000000e-02 9.857910590000001e-02 -6.074593240000000e-02 2.599547560000000e-01 -7.395956440000000e-02 2.353129100000000e-01 7.137701829999999e-01
            2.362174240000000e-01 7.127610410000000e-01 2.599597210000000e-01 -7.395282320000000e-02 9.797881760000000e-02 -6.044712340000000e-02 9.479072580000000e-02 -5.535895980000000e-02
            2.614604680000000e-01 -7.250756329999999e-02 2.353089380000000e-01 7.137677940000000e-01 9.481221889999999e-02 -5.537974450000000e-02 1.022005680000000e-01 -5.895156750000000e-02
51457881.6000000015 7.370183050000000e-02 -6.029724780000000e-02 6.818703710000000e-02 -5.458115320000000e-02 3.973523290000000e-01 6.393464300000000e-01 2.425999180000000e-01 -1.299234070000000e-01
            6.817783850000000e-02 -5.458185750000000e-02 7.078925430000001e-02 -6.135152390000000e-02 2.408046610000000e-01 -1.310531520000000e-01 3.967104910000000e-01 6.405499450000000e-01
            3.973636970000000e-01 6.393507250000000e-01 2.407972540000000e-01 -1.310606670000000e-01 7.007502420000000e-02 -6.135650560000000e-02 6.798064750000000e-02 -5.515246370000000e-02
            2.426045290000000e-01 -1.299407360000000e-01 3.967294170000000e-01 6.405557310000000e-01 6.797624800000000e-02 -5.513911820000000e-02 7.424647240000000e-02 -5.984293150000000e-02
51957464.6000000015 4.846055560000000e-02 -4.794176530000000e-02 4.436812150000000e-02 -4.195161050000000e-02 5.375971950000000e-01 5.282032190000000e-01 2.114682860000000e-01 -1.844850340000000e-01
            4.437721830000000e-02 -4.195175650000000e-02 4.558086560000000e-02 -4.902262530000000e-02 2.094315790000000e-01 -1.851736850000000e-01 5.372532060000000e-01 5.295261510000000e-01
            5.376055540000000e-01 5.281955920000000e-01 2.094323070000000e-01 -1.851735690000000e-01 4.462663860000000e-02 -4.925758750000000e-02 4.383745650000000e-02 -4.241214290000000e-02
            2.114652010000000e-01 -1.844731530000000e-01 5.372544230000000e-01 5.295275420000000e-01 4.382659540000000e-02 -4.241465820000000e-02 4.872058300000000e-02 -4.771320150000000e-02
52457047.5000000000 3.186529590000000e-02 -2.510965360000000e-02 2.905572710000000e-02 -1.941004500000000e-02 6.468430370000000e-01 3.853063810000000e-01 1.670200170000000e-01 -2.332029920000000e-01
            2.905138170000000e-02 -1.941079250000000e-02 2.901202890000000e-02 -2.622137390000000e-02 1.648340870000000e-01 -2.334056610000000e-01 6.468295890000000e-01 3.866659730000000e-01
            6.468548840000000e-01 3.853042050000000e-01 1.648295060000000e-01 -2.334200020000000e-01 2.762053410000000e-02 -2.653776060000000e-02 2.820226870000000e-02 -1.961055470000000e-02
            1.670089830000000e-01 -2.331925350000000e-01 6.468311740000000e-01 3.866592860000000e-01 2.820543720000000e-02 -1.960752430000000e-02 3.167257110000000e-02 -2.494523630000000e-02
52956630.5000000000 2.810367270000000e-02 2.787204280000000e-03 2.615110770000000e-02 7.791016610000000e-03 7.172023980000000e-01 2.201595460000000e-01 1.094231400000000e-01 -2.717104160000000e-01
            2.615379030000000e-02 7.787496470000000e-03 2.525362230000000e-02 1.623769980000000e-03 1.071824540000000e-01 -2.713929800000000e-01 7.175103190000000e-01 2.214729990000000e-01
            7.171976890000000e-01 2.201388290000000e-01 1.071991490000000e-01 -2.713858560000000e-01 2.331387450000000e-02 1.425169130000000e-03 2.512453740000000e-02 7.985827260000000e-03
            1.094323900000000e-01 -2.717218630000000e-01 7.175119010000000e-01 2.214585630000000e-01 2.513237100000000e-02 7.995151020000001e-03 2.737641500000000e-02 3.080579250000000e-03
53456213.5000000000 3.798245440000000e-02 2.879252970000000e-02 3.641086610000000e-02 3.298375590000000e-02 7.445620770000000e-01 4.445038390000000e-02 4.125980790000000e-02 -2.950650810000000e-01
            3.640926200000000e-02 3.298876150000000e-02 3.511551640000000e-02 2.758533180000000e-02 3.914818320000000e-02 -2.942057260000000e-01 7.451678349999999e-01 4.565170970000000e-02
            7.445594250000001e-01 4.445828730000000e-02 3.915801450000000e-02 -2.941850820000000e-01 3.266994860000000e-02 2.778799940000000e-02 3.537437540000000e-02 3.367072670000000e-02
            4.126869050000000e-02 -2.950620190000000e-01 7.451602300000000e-01 4.564407510000000e-02 3.535784430000000e-02 3.365573660000000e-02 3.673554370000000e-02 2.950371370000000e-02
53955796.5000000000 5.869492410000000e-02 4.667442310000000e-02 5.700306480000000e-02 5.015095250000000e-02 7.290468500000000e-01 -1.299947540000000e-01 -3.236279850000000e-02 -2.995506690000000e-01
            5.700023510000000e-02 5.014904620000000e-02 5.579499620000000e-02 4.541471830000000e-02 -3.422668900000000e-02 -2.981838050000000e-01 7.299065090000000e-01 -1.289809330000000e-01
            7.290493620000000e-01 -1.300023780000000e-01 -3.421642740000000e-02 -2.981935080000000e-01 5.292008470000000e-02 4.623566650000000e-02 5.617625620000000e-02 5.132142720000000e-02
            -3.236473730000000e-02 -2.995544880000000e-01 7.298841550000000e-01 -1.289765640000000e-01 5.616586420000000e-02 5.130212620000000e-02 5.703598730000000e-02 4.800129020000000e-02
54455379.5000000000 8.482762770000001e-02 5.251392790000000e-02 8.266858840000001e-02 5.564157160000000e-02 6.741470750000000e-01 -2.930774690000000e-01 -1.049812300000000e-01 -2.841042610000000e-01
            8.267831150000000e-02 5.564459130000000e-02 8.190065720000000e-02 5.126840260000000e-02 -1.064460730000000e-01 -2.823075920000000e-01 6.752056030000000e-01 -2.922813560000000e-01
            6.741510730000000e-01 -2.930728130000000e-01 -1.064465930000000e-01 -2.823251340000000e-01 7.878853769999999e-02 5.287930160000000e-02 8.225305210000000e-02 5.721617160000000e-02
            -1.049784760000000e-01 -2.840947130000000e-01 6.751949250000000e-01 -2.922877570000000e-01 8.225374410000000e-02 5.720279520000000e-02 8.295371720000000e-02 5.467922810000000e-02
54954962.5000000000 1.101721830000000e-01 4.567821430000000e-02 1.074584270000000e-01 4.890375440000000e-02 5.851667210000000e-01 -4.370693540000000e-01 -1.703905200000000e-01 -2.504356160000000e-01
            1.074570070000000e-01 4.890934950000000e-02 1.071862650000000e-01 4.442759230000000e-02 -1.714047130000000e-01 -2.483445730000000e-01 5.863724420000000e-01 -4.365512820000000e-01
            5.851655910000000e-01 -4.370647130000000e-01 -1.714104490000000e-01 -2.483473560000000e-01 1.041440710000000e-01 4.700825240000000e-02 1.075930000000000e-01 5.070824800000000e-02
            -1.704112830000000e-01 -2.504325500000000e-01 5.863695860000000e-01 -4.365447540000000e-01 1.075952450000000e-01 5.071627410000000e-02 1.083565540000000e-01 4.879368030000000e-02
55454545.5000000000 1.292463310000000e-01 2.824764240000000e-02 1.261508550000000e-01 3.205705490000000e-02 4.679605610000000e-01 -5.563740450000000e-01 -2.241446190000000e-01 -2.023398810000000e-01
            1.261380290000000e-01 3.206146370000000e-02 1.262594280000000e-01 2.702964040000000e-02 -2.246143900000000e-01 -2.000896770000000e-01 4.692358400000000e-01 -5.561431650000001e-01
            4.679627310000000e-01 -5.563715720000000e-01 -2.246323480000000e-01 -2.001110870000000e-01 1.235534100000000e-01 3.056194150000000e-02 1.269373720000000e-01 3.388420420000000e-02
            -2.241391430000000e-01 -2.023409510000000e-01 4.692403970000000e-01 -5.561452230000000e-01 1.269438470000000e-01 3.387061780000000e-02 1.278192660000000e-01 3.231041680000000e-02
55954128.3999999985 1.382961320000000e-01 4.245838440000000e-03 1.352155260000000e-01 8.967648340000000e-03 3.283373890000000e-01 -6.466872720000000e-01 -2.638360360000000e-01 -1.443797980000000e-01
            1.352276300000000e-01 8.977783570000000e-03 1.353057630000000e-01 3.066281260000000e-03 -2.637764590000000e-01 -1.420741510000000e-01 3.296329110000000e-01 -6.467518520000000e-01
            3.283232290000000e-01 -6.466920520000000e-01 -2.637819050000000e-01 -1.420750460000000e-01 1.332880910000000e-01 7.473647980000000e-03 1.366286450000000e-01 1.057005980000000e-02
            -2.638236380000000e-01 -1.443688750000000e-01 3.296233170000000e-01 -6.467579870000000e-01 1.366277610000000e-01 1.056753110000000e-02 1.375415890000000e-01 9.171866880000001e-03
56453711.3999999985 1.356327090000000e-01 -2.134308120000000e-02 1.330792390000000e-01 -1.558128330000000e-02 1.721606110000000e-01 -7.043720420000000e-01 -2.889602320000000e-01 -8.068003460000001e-02
            1.330812610000000e-01 -1.559340960000000e-02 1.326140480000000e-01 -2.248295420000000e-02 -2.883772140000000e-01 -7.845566140000000e-02 1.734068540000000e-01 -7.047221760000000e-01
            1.721445410000000e-01 -7.043456870000000e-01 -2.883800220000000e-01 -7.843809390000001e-02 1.315626330000000e-01 -1.737771100000000e-02 1.350150350000000e-01 -1.442916810000000e-02
            -2.889620920000000e-01 -8.064437900000000e-02 1.733983580000000e-01 -7.047048230000000e-01 1.350141080000000e-01 -1.442283900000000e-02 1.358302980000000e-01 -1.571102470000000e-02
56953294.3999999985 1.216316840000000e-01 -4.328325440000000e-02 1.201948900000000e-01 -3.668027870000000e-02 5.933435700000000e-03 -7.261130460000000e-01 -3.000029300000000e-01 -1.435193650000000e-02
            1.201844170000000e-01 -3.668145610000000e-02 1.186429340000000e-01 -4.439958180000000e-02 -2.989482410000000e-01 -1.231782390000000e-02 7.059349010000000e-03 -7.267621600000000e-01
            5.931392850000000e-03 -7.261107790000000e-01 -2.989705230000000e-01 -1.232503400000000e-02 1.187546940000000e-01 -3.888204670000000e-02 1.224777180000000e-01 -3.613039950000000e-02
            -2.999940230000000e-01 -1.435443870000000e-02 7.055778270000000e-03 -7.267594469999999e-01 1.224926530000000e-01 -3.611965290000000e-02 1.230130620000000e-01 -3.726540390000000e-02
57452877.3999999985 9.881704669999999e-02 -5.685002310000000e-02 9.896722190000000e-02 -4.982996030000000e-02 -1.627132830000000e-01 -7.093954900000000e-01 -2.976603560000000e-01 5.259420490000000e-02
            9.897305800000000e-02 -4.983095400000000e-02 9.588186410000001e-02 -5.794140130000000e-02 -2.961745160000000e-01 5.432321350000000e-02 -1.617599830000000e-01 -7.102761890000000e-01
            -1.627017070000000e-01 -7.094010150000000e-01 -2.961765490000000e-01 5.433858460000000e-02 9.729555330000000e-02 -5.239062850000000e-02 1.014194510000000e-01 -4.999898310000000e-02
            -2.976718860000000e-01 5.257774430000000e-02 -1.617572940000000e-01 -7.102737090000000e-01 1.014176010000000e-01 -5.000372730000000e-02 1.015020880000000e-01 -5.080200100000000e-02
57952460.3999999985 7.173558380000000e-02 -5.866026640000000e-02 7.370099690000000e-02 -5.186653540000000e-02 -3.247338290000000e-01 -6.530985720000000e-01 -2.819517450000000e-01 1.186406810000000e-01
            7.370819140000000e-02 -5.188275520000000e-02 6.883741490000000e-02 -5.977349270000000e-02 -2.801053120000000e-01 1.200507790000000e-01 -3.240046960000000e-01 -6.541824960000000e-01
            -3.247405760000000e-01 -6.530994369999999e-01 -2.801064860000000e-01 1.200527810000000e-01 7.155337550000000e-02 -5.458864060000000e-02 7.604213080000000e-02 -5.282019840000000e-02
            -2.819560060000000e-01 1.186477560000000e-01 -3.240211370000000e-01 -6.541877470000000e-01 7.602933390000000e-02 -5.279176540000000e-02 7.566696790000001e-02 -5.297452730000000e-02
58452043.3999999985 4.624551260000000e-02 -4.762042430000000e-02 4.999054670000000e-02 -4.179999030000000e-02 -4.699615880000000e-01 -5.586537650000000e-01 -2.521548740000000e-01 1.820346360000000e-01
            4.998775860000000e-02 -4.179651340000000e-02 4.336748030000000e-02 -4.875114720000000e-02 -2.500102060000000e-01 1.829941980000000e-01 -4.695184400000000e-01 -5.598629530000000e-01
            -4.699642870000000e-01 -5.586358200000000e-01 -2.500116330000000e-01 1.829907780000000e-01 4.722312400000000e-02 -4.432108260000000e-02 5.197571660000000e-02 -4.341505580000000e-02
            -2.521524100000000e-01 1.820377240000000e-01 -4.695073750000000e-01 -5.598493200000000e-01 5.196535760000000e-02 -4.342301680000000e-02 5.129500330000000e-02 -4.267830680000000e-02
58951626.3999999985 2.842975550000000e-02 -2.563020910000000e-02 3.357814650000000e-02 -2.146002900000000e-02 -5.882379900000000e-01 -4.308415040000000e-01 -2.073294160000000e-01 2.396458870000000e-01
            3.356422370000000e-02 -2.146153060000000e-02 2.560901710000000e-02 -2.680345370000000e-02 -2.049591200000000e-01 2.401069390000000e-01 -5.880986830000000e-01 -4.321255480000000e-01
            -5.882468050000000e-01 -4.308423200000000e-01 -2.049706650000000e-01 2.400931410000000e-01 3.025760850000000e-02 -2.340976570000000e-02 3.495608810000000e-02 -2.361582870000000e-02
            -2.073121100000000e-01 2.396610770000000e-01 -5.881002300000000e-01 -4.321306910000000e-01 3.495529400000000e-02 -2.361187190000000e-02 3.428767700000000e-02 -2.171986760000000e-02
59451209.2999999970 2.286544520000000e-02 2.395711180000000e-03 2.877593930000000e-02 4.442565960000000e-03 -6.710961950000000e-01 -2.780803310000000e-01 -1.475941830000000e-01 2.869423400000000e-01
            2.876246730000000e-02 4.430395250000000e-03 2.005702230000000e-02 1.168934960000000e-03 -1.451694980000000e-01 2.868190000000000e-01 -6.712615330000000e-01 -2.793553670000000e-01
            -6.710951960000000e-01 -2.780825820000000e-01 -1.451641100000000e-01 2.868283270000000e-01 2.512588730000000e-02 3.342992530000000e-03 2.938905500000000e-02 1.986789090000000e-03
            -1.476097870000000e-01 2.869589610000000e-01 -6.712630370000000e-01 -2.793545930000000e-01 2.938196400000000e-02 1.996866590000000e-03 2.913614520000000e-02 5.094063370000000e-03
59950792.2999999970 3.103502170000000e-02 2.976592220000000e-02 3.686544560000000e-02 2.948332470000000e-02 -7.134719290000000e-01 -1.112114230000000e-01 -7.540454970000000e-02 3.187219550000000e-01
            3.685697750000000e-02 2.948823310000000e-02 2.819848740000000e-02 2.851123190000000e-02 -7.303699310000000e-02 3.180007440000000e-01 -7.139261840000000e-01 -1.124052070000000e-01
            -7.134816820000000e-01 -1.112067740000000e-01 -7.303867620000000e-02 3.180003070000000e-01 3.329483420000000e-02 2.944814560000000e-02 3.665493270000000e-02 2.705730000000000e-02
            -7.539863890000000e-02 3.187115370000000e-01 -7.139320340000000e-01 -1.124049450000000e-01 3.666100890000000e-02 2.705902670000000e-02 3.732238290000000e-02 3.126546670000000e-02
60450375.2999999970 5.077577910000000e-02 5.000164510000000e-02 5.569985230000000e-02 4.759394820000000e-02 -7.143736660000000e-01 5.834225650000000e-02 4.293414870000000e-03 3.307198040000000e-01
            5.570183300000000e-02 4.759010420000000e-02 4.792331960000000e-02 4.870930060000000e-02 6.434513080000000e-03 3.294740550000000e-01 -7.150978330000000e-01 5.730396270000000e-02
            -7.143761820000000e-01 5.833924200000000e-02 6.421712110000000e-03 3.294508120000000e-01 5.265418340000000e-02 4.862100930000000e-02 5.474209480000000e-02 4.548299980000000e-02
            4.295871210000000e-03 3.307356890000000e-01 -7.150887410000000e-01 5.728888190000000e-02 5.475208060000000e-02 4.547324670000000e-02 5.671920410000000e-02 5.049064600000000e-02
60949958.2999999970 7.716694420000000e-02 5.878457420000000e-02 8.045910580000000e-02 5.469343200000000e-02 -6.762276960000000e-01 2.204500660000000e-01 8.484525270000000e-02 3.212461890000000e-01
            8.045812889999999e-02 5.468881970000000e-02 7.427207850000000e-02 5.744662640000000e-02 8.658313660000000e-02 3.194860430000000e-01 -6.771575960000000e-01 2.195941760000000e-01
            -6.762307260000000e-01 2.204501660000000e-01 8.660495159999999e-02 3.194780280000000e-01 7.839173530000000e-02 5.657965770000000e-02 7.895218240000000e-02 5.315992340000000e-02
            8.484310270000001e-02 3.212416360000000e-01 -6.771569110000000e-01 2.195985170000000e-01 7.895835869999999e-02 5.316226760000000e-02 8.250717880000000e-02 5.845782730000000e-02
61449541.2999999970 1.041022110000000e-01 5.470573730000000e-02 1.053011700000000e-01 4.969650860000000e-02 -6.035447510000000e-01 3.671398550000000e-01 1.595926230000000e-01 2.913651710000000e-01
            1.053008300000000e-01 4.969520190000000e-02 1.011638610000000e-01 5.339909370000000e-02 1.608974120000000e-01 2.892469740000000e-01 -6.046390870000000e-01 3.665401610000000e-01
            -6.035516430000000e-01 3.671409290000000e-01 1.608849640000000e-01 2.892530650000000e-01 1.045396040000000e-01 5.203542150000000e-02 1.035284200000000e-01 4.889377020000000e-02
            1.595968520000000e-01 2.913797420000000e-01 -6.046450700000000e-01 3.665362350000000e-01 1.035133140000000e-01 4.888076270000000e-02 1.087253410000000e-01 5.391214370000000e-02
61949124.2999999970 1.259451250000000e-01 3.932775470000000e-02 1.249188430000000e-01 3.427125430000000e-02 -5.015246030000000e-01 4.925103690000000e-01 2.232923770000000e-01 2.445588620000000e-01
            1.249173560000000e-01 3.427083070000000e-02 1.229737010000000e-01 3.803000170000000e-02 2.240489350000000e-01 2.421936560000000e-01 -5.027080700000000e-01 4.921649930000000e-01
            -5.015421230000000e-01 4.925143250000000e-01 2.240483500000000e-01 2.422004960000000e-01 1.255836110000000e-01 3.652634400000000e-02 1.231656670000000e-01 3.419374450000000e-02
            2.233049110000000e-01 2.445661100000000e-01 -5.027130440000001e-01 4.921907170000000e-01 1.231678910000000e-01 3.419235190000000e-02 1.297886210000000e-01 3.837173310000000e-02
62448707.2999999970 1.385267480000000e-01 1.622418180000000e-02 1.355155390000000e-01 1.196419600000000e-02 -3.754577130000000e-01 5.919882800000000e-01 2.727920900000000e-01 1.853278020000000e-01
            1.355255360000000e-01 1.194836980000000e-02 1.355405400000000e-01 1.498176920000000e-02 2.729736320000000e-01 1.828705460000000e-01 -3.766756460000000e-01 5.919417950000000e-01
            -3.754411790000000e-01 5.919843809999999e-01 2.729898160000000e-01 1.828632430000000e-01 1.374901370000000e-01 1.357973820000000e-02 1.340621050000000e-01 1.253913630000000e-02
            2.727975460000000e-01 1.853272920000000e-01 -3.766712300000000e-01 5.919226400000001e-01 1.340597800000000e-01 1.253543380000000e-02 1.417292330000000e-01 1.539004570000000e-02
62948290.2000000030 1.396366770000000e-01 -9.829723760000001e-03 1.352046230000000e-01 -1.266157810000000e-02 -2.306555430000000e-01 6.616037540000000e-01 3.068567230000000e-01 1.181049430000000e-01
            1.351852190000000e-01 -1.267414200000000e-02 1.366626310000000e-01 -1.107039140000000e-02 3.064694180000000e-01 1.156783720000000e-01 -2.318782030000000e-01 6.618229360000000e-01
            -2.306688570000000e-01 6.615855610000000e-01 3.064809510000000e-01 1.156701530000000e-01 1.381425270000000e-01 -1.207813270000000e-02 1.342401460000000e-01 -1.162475030000000e-02
            3.068638340000000e-01 1.180996360000000e-01 -2.318624930000000e-01 6.618230090000000e-01 1.342520510000000e-01 -1.162918150000000e-02 1.423791760000000e-01 -1.032496710000000e-02
63447873.2000000030 1.291431120000000e-01 -3.372253580000000e-02 1.239923610000000e-01 -3.474650570000000e-02 -7.303575010000000e-02 6.977592840000000e-01 3.255506330000000e-01 4.645958750000000e-02
            1.239955540000000e-01 -3.475217000000000e-02 1.261844590000000e-01 -3.491487280000000e-02 3.246350120000000e-01 4.419159130000000e-02 -7.416771940000000e-02 6.982465090000000e-01
            -7.304880510000000e-02 6.977522740000000e-01 3.246376050000000e-01 4.419960180000000e-02 1.274510790000000e-01 -3.545483660000000e-02 1.236877830000000e-01 -3.345843390000000e-02
            3.255524160000000e-01 4.647421900000000e-02 -7.416296650000000e-02 6.982354310000000e-01 1.237082590000000e-01 -3.345652960000000e-02 1.316923500000000e-01 -3.374468870000000e-02
63947456.2000000030 1.089760100000000e-01 -5.056970970000000e-02 1.039297830000000e-01 -4.972232920000000e-02 9.039505820000000e-02 6.973621390000000e-01 3.292952410000000e-01 -2.701367080000000e-02
            1.039162670000000e-01 -4.971284010000000e-02 1.060542420000000e-01 -5.173519450000000e-02 3.278773450000000e-01 -2.903963870000000e-02 8.943635460000000e-02 6.980942959999999e-01
            9.041240690000001e-02 6.973531950000000e-01 3.278910390000000e-01 -2.902347210000000e-02 1.074353250000000e-01 -5.177905320000000e-02 1.043187990000000e-01 -4.848348540000000e-02
            3.292870740000000e-01 -2.701201090000000e-02 8.941751520000001e-02 6.980911970000000e-01 1.043112190000000e-01 -4.847556270000000e-02 1.115983610000000e-01 -5.009439210000000e-02
64447039.2000000030 8.307347530000000e-02 -5.661155460000000e-02 7.887870029999999e-02 -5.417390510000000e-02 2.512474070000000e-01 6.585022370000000e-01 3.181410340000000e-01 -1.004711110000000e-01
            7.887786369999999e-02 -5.418307400000000e-02 8.017975970000001e-02 -5.777778260000000e-02 3.163016910000000e-01 -1.021262070000000e-01 2.504908170000000e-01 6.594485919999999e-01
            2.512614490000000e-01 6.584955630000000e-01 3.163039020000000e-01 -1.021364410000000e-01 8.195492320000000e-02 -5.741318760000000e-02 7.988978569999999e-02 -5.322593790000000e-02
            3.181457500000000e-01 -1.004605180000000e-01 2.504723560000000e-01 6.594617060000000e-01 7.988463780000001e-02 -5.323848900000000e-02 8.607760560000000e-02 -5.572939430000000e-02
64946622.2000000030 5.693351130000000e-02 -5.006080690000000e-02 5.411287830000000e-02 -4.658442430000000e-02 3.997425040000000e-01 5.815071570000000e-01 2.914658100000000e-01 -1.718184750000000e-01
            5.410499040000000e-02 -4.659885570000000e-02 5.407079550000000e-02 -5.123738990000000e-02 2.892901530000000e-01 -1.730466450000000e-01 3.992228710000000e-01 5.826062350000000e-01
            3.997445590000000e-01 5.815012810000000e-01 2.892796420000000e-01 -1.730483890000000e-01 5.646540710000000e-02 -5.068141820000000e-02 5.561168990000000e-02 -4.616306630000000e-02
            2.914641710000000e-01 -1.718273670000000e-01 3.992150620000000e-01 5.826051340000000e-01 5.559894330000000e-02 -4.616505760000000e-02 6.051912360000000e-02 -4.898593760000000e-02
65446205.2000000030 3.658626290000000e-02 -3.193436900000000e-02 3.539090400000000e-02 -2.812741610000000e-02 5.256808480000000e-01 4.698664450000000e-01 2.483719400000000e-01 -2.379777320000000e-01
            3.538326720000000e-02 -2.811893320000000e-02 3.376884360000000e-02 -3.313744630000000e-02 2.459321090000000e-01 -2.386891440000000e-01 5.254318650000001e-01 4.710622090000000e-01
            5.256837220000000e-01 4.698582500000000e-01 2.459157140000000e-01 -2.386899260000000e-01 3.690250440000000e-02 -3.272118850000000e-02 3.716125310000000e-02 -2.837760770000000e-02
            2.483606740000000e-01 -2.379809400000000e-01 5.254317710000000e-01 4.710748540000000e-01 3.716087410000000e-02 -2.837081490000000e-02 4.092656610000000e-02 -3.097277130000000e-02
65945788.2000000030 2.706675270000000e-02 -6.286501900000000e-03 2.743000980000000e-02 -2.807183100000000e-03 6.200740179999999e-01 3.306732150000000e-01 1.887608210000000e-01 -2.943792770000000e-01
            2.743114770000000e-02 -2.812851310000000e-03 2.428631070000000e-02 -7.535961450000000e-03 1.861672500000000e-01 -2.944878760000000e-01 6.201209430000000e-01 3.318837770000000e-01
            6.200713720000000e-01 3.306628920000000e-01 1.861613280000000e-01 -2.944955450000000e-01 2.814931490000000e-02 -7.561457080000000e-03 2.920738280000000e-02 -3.840573060000000e-03
            1.887691610000000e-01 -2.943680130000000e-01 6.201051380000000e-01 3.318734830000000e-01 2.920678060000000e-02 -3.843086710000000e-03 3.213278830000000e-02 -5.775982510000000e-03
66445371.1000000015 3.072382170000000e-02 2.069892510000000e-02 3.228872140000000e-02 2.324547680000000e-02 6.767748050000000e-01 1.737858090000000e-01 1.146276140000000e-01 -3.355665690000000e-01
            3.231852800000000e-02 2.325542060000000e-02 2.791495370000000e-02 1.940074310000000e-02 1.120536820000000e-01 -3.350570200000000e-01 6.770986650000000e-01 1.749526050000000e-01
            6.767905400000001e-01 1.737815520000000e-01 1.120503780000000e-01 -3.350655740000000e-01 3.239523580000000e-02 1.858223160000000e-02 3.381489830000000e-02 2.145395640000000e-02
            1.146163280000000e-01 -3.355800490000000e-01 6.771175210000000e-01 1.749440380000000e-01 3.380558760000000e-02 2.145778620000000e-02 3.639100010000000e-02 2.046611250000000e-02
66944954.1000000015 4.637578780000000e-02 4.250072250000000e-02 4.870275060000000e-02 4.380561500000000e-02 6.935601450000000e-01 1.020337880000000e-02 3.055275190000000e-02 -3.567475400000000e-01
            4.870402200000000e-02 4.380544350000000e-02 4.355586050000000e-02 4.117154790000000e-02 2.815690780000000e-02 -3.556306170000000e-01 6.941610890000000e-01 1.125349200000000e-02
            6.935844270000000e-01 1.021568040000000e-02 2.817629840000000e-02 -3.556377280000000e-01 4.841806550000000e-02 3.934149690000000e-02 4.966035420000000e-02 4.138327320000000e-02
            3.056131450000000e-02 -3.567544250000000e-01 6.941627620000000e-01 1.126635340000000e-02 4.966444850000000e-02 4.137897950000000e-02 5.244739920000000e-02 4.125499510000000e-02
67444537.0999999940 6.990573930000001e-02 5.426688290000000e-02 7.237366850000000e-02 5.421912220000000e-02 6.717592240000000e-01 -1.498304050000000e-01 -5.683859170000000e-02 -3.553109000000000e-01
            7.238104319999999e-02 5.421107680000000e-02 6.704433460000001e-02 5.289192260000000e-02 -5.888005030000000e-02 -3.536420800000000e-01 6.725489900000000e-01 -1.489536990000000e-01
            6.717443180000000e-01 -1.498226170000000e-01 -5.889556380000000e-02 -3.536181870000000e-01 7.199046380000000e-02 4.988818120000000e-02 7.259323490000000e-02 5.136410980000000e-02
            -5.683310390000000e-02 -3.553114450000000e-01 6.725542510000000e-01 -1.489492810000000e-01 7.259660250000000e-02 5.136072670000000e-02 7.605172089999999e-02 5.182572780000000e-02
67944120.0999999940 9.554660510000000e-02 5.389757560000000e-02 9.766294400000000e-02 5.267032930000000e-02 6.149638140000000e-01 -2.980440640000000e-01 -1.405174380000000e-01 -3.314969110000000e-01
            9.767309220000001e-02 5.267713950000000e-02 9.264745630000000e-02 5.253051190000000e-02 -1.420955240000000e-01 -3.293844060000000e-01 6.159368570000000e-01 -2.973850540000000e-01
            6.149753270000000e-01 -2.980647540000000e-01 -1.421056430000000e-01 -3.293870720000000e-01 9.733896520000000e-02 4.824066590000000e-02 9.705292900000000e-02 4.962099330000000e-02
            -1.405217630000000e-01 -3.314970070000000e-01 6.159442979999999e-01 -2.973934810000000e-01 9.705468170000001e-02 4.962847570000000e-02 1.014598380000000e-01 5.020760070000000e-02
68443703.0999999940 1.176469890000000e-01 4.220783910000000e-02 1.191034750000000e-01 4.014438870000000e-02 5.278764889999999e-01 -4.281634230000000e-01 -2.144622550000000e-01 -2.881653700000000e-01
            1.190971970000000e-01 4.014597670000000e-02 1.147141110000000e-01 4.085598340000000e-02 -2.155214470000000e-01 -2.857362160000000e-01 5.289744720000000e-01 -4.277439840000000e-01
            5.278746750000000e-01 -4.281745190000000e-01 -2.155149990000000e-01 -2.857321060000000e-01 1.188350410000000e-01 3.531111220000000e-02 1.176047360000000e-01 3.717480560000000e-02
            -2.144745910000000e-01 -2.881607410000000e-01 5.289646850000000e-01 -4.277442260000000e-01 1.176027120000000e-01 3.714967420000000e-02 1.229862380000000e-01 3.724901730000000e-02
68943286.0999999940 1.318176310000000e-01 2.223772760000000e-02 1.324807920000000e-01 1.973485330000000e-02 4.153049860000000e-01 -5.352880060000000e-01 -2.746616830000000e-01 -2.295948290000000e-01
            1.324708560000000e-01 1.975241170000000e-02 1.288686100000000e-01 2.091322350000000e-02 -2.750951040000000e-01 -2.269971050000000e-01 4.164470670000000e-01 -5.351321920000000e-01
            4.152933510000000e-01 -5.352820840000000e-01 -2.750997100000000e-01 -2.270014930000000e-01 1.320522780000000e-01 1.421022170000000e-02 1.301543340000000e-01 1.705893760000000e-02
            -2.746555060000000e-01 -2.295692700000000e-01 4.164469200000000e-01 -5.351385640000000e-01 1.301608960000000e-01 1.705411460000000e-02 1.362421090000000e-01 1.609137570000000e-02
69442869.0999999940 1.354686270000000e-01 -1.631916070000000e-03 1.354315340000000e-01 -4.175546200000000e-03 2.821736040000000e-01 -6.152157470000000e-01 -3.189901140000000e-01 -1.603348400000000e-01
            1.354366470000000e-01 -4.194358420000000e-03 1.325442590000000e-01 -2.932317170000000e-03 -3.188472290000000e-01 -1.577195690000000e-01 2.833272110000000e-01 -6.153157310000000e-01
            2.821698400000000e-01 -6.152232520000001e-01 -3.188411580000000e-01 -1.577258600000000e-01 1.344465490000000e-01 -1.063306550000000e-02 1.323628660000000e-01 -6.367423620000000e-03
            -3.189890380000000e-01 -1.603236970000000e-01 2.833255370000000e-01 -6.153153430000000e-01 1.323697410000000e-01 -6.367573640000000e-03 1.386372970000000e-01 -8.778783619999999e-03
69942452.0000000000 1.280332870000000e-01 -2.447522810000000e-02 1.275555310000000e-01 -2.687507880000000e-02 1.338509900000000e-01 -6.640556750000000e-01 -3.468780670000000e-01 -8.437884890000000e-02
            1.275300140000000e-01 -2.687050250000000e-02 1.251032790000000e-01 -2.575350990000000e-02 -3.461476140000000e-01 -8.189215050000000e-02 1.349646780000000e-01 -6.644322290000000e-01
            1.338624910000000e-01 -6.640608090000000e-01 -3.461329240000000e-01 -8.188715119999999e-02 1.254686100000000e-01 -3.418168410000000e-02 1.238600810000000e-01 -2.835868550000000e-02
            -3.468702550000000e-01 -8.439277090000000e-02 1.349585900000000e-01 -6.644168580000001e-01 1.238632180000000e-01 -2.835270170000000e-02 1.296398590000000e-01 -3.236572050000000e-02
70442035.0000000000 1.109763070000000e-01 -4.154552690000000e-02 1.103388800000000e-01 -4.369672930000000e-02 -2.320187190000000e-02 -6.783322420000000e-01 -3.583346110000000e-01 -4.828797500000000e-03
            1.103442690000000e-01 -4.370416060000000e-02 1.080545230000000e-01 -4.278415970000000e-02 -3.570384680000000e-01 -2.538238590000000e-03 -2.222403260000000e-02 -6.789483910000000e-01
            -2.320664400000000e-02 -6.783244730000000e-01 -3.570641410000000e-01 -2.548921460000000e-03 1.066077020000000e-01 -5.157120920000000e-02 1.061830280000000e-01 -4.435008710000000e-02
            -3.583226520000000e-01 -4.829217430000000e-03 -2.222266110000000e-02 -6.789435920000000e-01 1.061691180000000e-01 -4.436064530000000e-02 1.107491370000000e-01 -4.979736220000000e-02
70941618.0000000000 8.769993370000000e-02 -4.891258590000000e-02 8.722281279999999e-02 -5.101133160000000e-02 -1.811504870000000e-01 -6.555439950000000e-01 -3.532617010000000e-01 7.597340299999999e-02
            8.723402640000000e-02 -5.100481840000000e-02 8.481138370000001e-02 -5.017853910000000e-02 -3.514906260000000e-01 7.793677740000000e-02 -1.803602890000000e-01 -6.563690160000000e-01
            -1.811545870000000e-01 -6.555190190000000e-01 -3.514808730000000e-01 7.792236570000000e-02 8.145526459999999e-02 -5.888076130000000e-02 8.277423110000000e-02 -5.067919020000000e-02
            -3.532572900000000e-01 7.598223380000001e-02 -1.803529600000000e-01 -6.563530000000000e-01 8.277340260000000e-02 -5.067076670000000e-02 8.552033710000000e-02 -5.712104670000000e-02
71441201.0000000000 6.327727070000000e-02 -4.454190810000000e-02 6.308658110000000e-02 -4.683371560000000e-02 -3.307094480000000e-01 -5.950749460000000e-01 -3.309960580000000e-01 1.556188560000000e-01
            6.309419740000000e-02 -4.683860020000000e-02 6.045194860000000e-02 -4.578709470000000e-02 -3.288138130000000e-01 1.571116140000000e-01 -3.300895520000000e-01 -5.960666980000000e-01
            -3.307042440000000e-01 -5.950662120000000e-01 -3.288105820000000e-01 1.571061440000000e-01 5.510389920000000e-02 -5.391599830000000e-02 5.861348670000000e-02 -4.540584480000000e-02
            -3.309974320000000e-01 1.556026850000000e-01 -3.300952050000000e-01 -5.960764730000000e-01 5.858896880000000e-02 -4.541991970000000e-02 5.911758710000000e-02 -5.213511820000000e-02
71940784.0000000000 4.350038020000000e-02 -2.886184460000000e-02 4.353813490000000e-02 -3.175899760000000e-02 -4.617835620000000e-01 -4.993707110000000e-01 -2.906509210000000e-01 2.307234050000000e-01
            4.353511110000000e-02 -3.173658290000000e-02 4.069691960000000e-02 -3.012801400000000e-02 -2.881499290000000e-01 2.317233200000000e-01 -4.614238270000000e-01 -5.004650210000000e-01
            -4.617710280000000e-01 -4.993735110000000e-01 -2.881484580000000e-01 2.317022470000000e-01 3.352560870000000e-02 -3.716135760000000e-02 3.929786270000000e-02 -2.915918250000000e-02
            -2.906506250000000e-01 2.307196750000000e-01 -4.614329100000000e-01 -5.004737420000001e-01 3.930609470000000e-02 -2.916319480000000e-02 3.749427680000000e-02 -3.535561440000000e-02
72440367.0000000000 3.342788050000000e-02 -5.293684630000000e-03 3.343619760000000e-02 -9.107105430000000e-03 -5.651182880000000e-01 -3.743056950000000e-01 -2.319831320000000e-01 2.966414070000000e-01
            3.343202370000000e-02 -9.098591020000000e-03 3.065960200000000e-02 -6.617510250000000e-03 -2.292764040000000e-01 2.970302040000000e-01 -5.650532210000000e-01 -3.754384870000000e-01
            -5.651248380000000e-01 -3.742959180000000e-01 -2.292830620000000e-01 2.970288140000000e-01 2.195922450000000e-02 -1.207994900000000e-02 2.980679660000000e-02 -5.380508870000000e-03
            -2.319842920000000e-01 2.966452580000000e-01 -5.650583880000000e-01 -3.754439980000000e-01 2.979833670000000e-02 -5.379765230000000e-03 2.587900060000000e-02 -1.019939870000000e-02
72939950.0000000000 3.588470610000000e-02 2.043272630000000e-02 3.538320520000000e-02 1.553584700000000e-02 -6.338886330000000e-01 -2.287551170000000e-01 -1.566967600000000e-01 3.476816030000000e-01
            3.536840360000000e-02 1.555581080000000e-02 3.309480210000000e-02 1.906428180000000e-02 -1.539559820000000e-01 3.474037040000000e-01 -6.340811540000000e-01 -2.298798340000000e-01
            -6.338955600000000e-01 -2.287592500000000e-01 -1.539557500000000e-01 3.473978630000000e-01 2.329372990000000e-02 1.553803290000000e-02 3.270397770000000e-02 2.023972110000000e-02
            -1.566981770000000e-01 3.476791330000000e-01 -6.340936310000000e-01 -2.298860420000000e-01 3.270197460000000e-02 2.022051380000000e-02 2.723937900000000e-02 1.747277140000000e-02
73439532.9000000060 5.026519490000000e-02 4.197046200000000e-02 4.870430290000000e-02 3.608530730000000e-02 -6.648120370000000e-01 -7.315552150000000e-02 -6.911605690000000e-02 3.785019850000000e-01
            4.870669490000000e-02 3.609669230000000e-02 4.745847590000000e-02 4.057769260000000e-02 -6.649719860000000e-02 3.775695600000000e-01 -6.652735860000000e-01 -7.417998090000000e-02
            -6.648207490000000e-01 -7.314534380000000e-02 -6.650059690000000e-02 3.775790850000000e-01 3.712437020000000e-02 3.916601320000000e-02 4.733247790000000e-02 4.143789130000000e-02
            -6.911537050000000e-02 3.785039600000000e-01 -6.652660610000000e-01 -7.418113179999999e-02 4.732043500000000e-02 4.141459530000000e-02 4.108588520000000e-02 4.115440020000000e-02
73939115.9000000060 7.297279090000000e-02 5.421859230000000e-02 6.985649210000000e-02 4.769032450000000e-02 -6.582496260000000e-01 8.252363140000001e-02 2.423218600000000e-02 3.857383060000000e-01
            6.985261220000000e-02 4.770261310000000e-02 7.012508119999999e-02 5.278375430000000e-02 2.655221030000000e-02 3.841739550000000e-01 -6.589288880000000e-01 8.162391560000000e-02
            -6.582656500000000e-01 8.252867610000000e-02 2.654556610000000e-02 3.841835670000000e-01 5.980448920000000e-02 5.354697940000000e-02 6.995162920000000e-02 5.325810490000000e-02
            2.422875350000000e-02 3.857290140000000e-01 -6.589267680000001e-01 8.163956660000000e-02 6.993736010000000e-02 5.326060850000000e-02 6.380215100000000e-02 5.556550380000000e-02
74438698.9000000060 9.855443170000000e-02 5.462787530000000e-02 9.354381959999999e-02 4.805188390000000e-02 -6.170204160000000e-01 2.298526370000000e-01 1.159737400000000e-01 3.688762770000000e-01
            9.353420910000000e-02 4.806001200000000e-02 9.570172280000000e-02 5.320192110000000e-02 1.178465760000000e-01 3.668291960000000e-01 -6.178716260000000e-01 2.291391060000000e-01
            -6.170023460000000e-01 2.298489740000000e-01 1.178581150000000e-01 3.668348900000000e-01 8.588905540000000e-02 5.597467250000000e-02 9.514202960000000e-02 5.336810670000000e-02
            1.159726840000000e-01 3.688779090000000e-01 -6.178617930000000e-01 2.291452030000000e-01 9.512850100000000e-02 5.338186260000000e-02 8.993925999999999e-02 5.802642280000000e-02
74938281.9000000060 1.213781670000000e-01 4.356445830000000e-02 1.143865410000000e-01 3.768081010000000e-02 -5.451329790000000e-01 3.623784490000000e-01 1.994897370000000e-01 3.301777840000000e-01
            1.143917000000000e-01 3.767740150000000e-02 1.184874340000000e-01 4.216997940000000e-02 2.008377500000000e-01 3.277667540000000e-01 -5.461130130000000e-01 3.618964500000000e-01
            -5.451392390000001e-01 3.623711330000000e-01 2.008251330000000e-01 3.277674590000000e-01 1.096530980000000e-01 4.671681360000000e-02 1.173370340000000e-01 4.226430410000000e-02
            1.994853060000000e-01 3.302010950000000e-01 -5.461181370000000e-01 3.618867760000000e-01 1.173438770000000e-01 4.226354320000000e-02 1.137744620000000e-01 4.874887990000000e-02
75437864.9000000060 1.368373570000000e-01 2.368756190000000e-02 1.281130270000000e-01 1.920779560000000e-02 -4.468715440000000e-01 4.750449160000000e-01 2.699498760000000e-01 2.736959200000000e-01
            1.281190690000000e-01 1.920149970000000e-02 1.339050150000000e-01 2.229389590000000e-02 2.706697150000000e-01 2.710169830000000e-01 -4.479560800000000e-01 4.747899600000000e-01
            -4.468730100000000e-01 4.750301950000000e-01 2.706570470000000e-01 2.710302600000000e-01 1.264297460000000e-01 2.823226460000000e-02 1.321255710000000e-01 2.269349050000000e-02
            2.699472260000000e-01 2.736841250000000e-01 -4.479358820000000e-01 4.747810770000000e-01 1.321147600000000e-01 2.268902450000000e-02 1.305460970000000e-01 3.023718610000000e-02
75937447.9000000060 1.419987550000000e-01 -8.728900380000000e-04 1.321073090000000e-01 -3.329256660000000e-03 -3.266704940000000e-01 5.635113830000000e-01 3.244853640000000e-01 2.039707490000000e-01
            1.321056820000000e-01 -3.334957570000000e-03 1.390843430000000e-01 -2.232005570000000e-03 3.245687360000000e-01 2.012168960000000e-01 -3.277571320000000e-01 5.635086130000000e-01
            -3.266594310000000e-01 5.635122960000000e-01 3.245771640000000e-01 2.012299780000000e-01 1.331717970000000e-01 4.661609810000000e-03 1.367617610000000e-01 -1.199322700000000e-03
            3.244824580000000e-01 2.039670840000000e-01 -3.277491310000000e-01 5.635003030000000e-01 1.367538400000000e-01 -1.206511300000000e-03 1.373041330000000e-01 6.637837550000000e-03
76437030.9000000060 1.359212570000000e-01 -2.528483500000000e-02 1.256262140000000e-01 -2.534484920000000e-02 -1.892735840000000e-01 6.236926090000000e-01 3.618762790000000e-01 1.253037030000000e-01
            1.256265300000000e-01 -2.532928100000000e-02 1.330065240000000e-01 -2.660840650000000e-02 3.613594400000000e-01 1.226091490000000e-01 -1.903218750000000e-01 6.239218060000000e-01
            -1.892495940000000e-01 6.236695850000000e-01 3.613671180000000e-01 1.226137710000000e-01 1.287543490000000e-01 -1.922748850000000e-02 1.304383620000000e-01 -2.472380540000000e-02
            3.618956400000000e-01 1.252815620000000e-01 -1.903436800000000e-01 6.239228730000000e-01 1.304308950000000e-01 -2.471344420000000e-02 1.328792440000000e-01 -1.732237450000000e-02
76936613.7999999970 1.196721780000000e-01 -4.470680500000000e-02 1.098521800000000e-01 -4.233662580000000e-02 -4.040446230000000e-02 6.517401180000000e-01 3.817819990000000e-01 4.118032130000000e-02
            1.098532390000000e-01 -4.234718200000000e-02 1.167697180000000e-01 -4.600309560000000e-02 3.806766190000000e-01 3.866146310000000e-02 -4.140278190000000e-02 6.522334319999999e-01
            -4.041129060000000e-02 6.517386070000000e-01 3.806738430000000e-01 3.866650170000000e-02 1.141002350000000e-01 -3.865330270000000e-02 1.143402180000000e-01 -4.317388190000000e-02
            3.817944780000000e-01 4.117881050000000e-02 -4.138300110000000e-02 6.522184260000000e-01 1.143239800000000e-01 -4.318574610000000e-02 1.182193050000000e-01 -3.676463300000000e-02
77436196.7999999970 9.624759700000000e-02 -5.501859900000000e-02 8.776371970000001e-02 -5.056555350000000e-02 1.127470500000000e-01 6.445906120000000e-01 3.838961330000000e-01 -4.561806120000000e-02
            8.776853229999999e-02 -5.056866360000000e-02 9.339233210000000e-02 -5.630783540000000e-02 3.822341080000000e-01 -4.782341860000000e-02 1.118990130000000e-01 6.452899890000000e-01
            1.127304520000000e-01 6.445723260000000e-01 3.822301670000000e-01 -4.782520960000000e-02 9.210648439999999e-02 -4.940374700000000e-02 9.143345059999999e-02 -5.266468750000000e-02
            3.838911910000000e-01 -4.561839680000000e-02 1.119091240000000e-01 6.452924220000000e-01 9.142510550000001e-02 -5.264124580000000e-02 9.615693440000000e-02 -4.753799290000000e-02
77935779.7999999970 7.039384780000001e-02 -5.366260580000000e-02 6.390650270000001e-02 -4.776120820000000e-02 2.614515600000000e-01 6.007623980000000e-01 3.675454980000000e-01 -1.324159160000000e-01
            6.390169179999999e-02 -4.776569920000000e-02 6.761526449999999e-02 -5.495293910000000e-02 3.654185040000000e-01 -1.342051700000000e-01 2.608138340000000e-01 6.016443760000000e-01
            2.614502900000000e-01 6.007649160000000e-01 3.654075620000000e-01 -1.342046210000000e-01 6.731114580000000e-02 -4.882765770000000e-02 6.637088170000000e-02 -5.072917510000000e-02
            3.675334020000000e-01 -1.324184320000000e-01 2.608095820000000e-01 6.016436160000000e-01 6.637538710000000e-02 -5.074422040000000e-02 7.129533040000000e-02 -4.694925080000000e-02
78435362.7999999970 4.788811050000000e-02 -4.048513320000000e-02 4.368611300000000e-02 -3.401933290000000e-02 3.960242230000000e-01 5.214858570000001e-01 3.317402210000000e-01 -2.158003510000000e-01
            4.367329400000000e-02 -3.402870440000000e-02 4.510957440000000e-02 -4.179625450000000e-02 3.292381140000000e-01 -2.170656500000000e-01 3.955911400000000e-01 5.224983240000000e-01
            3.960080910000000e-01 5.214899110000000e-01 3.292576440000000e-01 -2.170493850000000e-01 4.536463880000000e-02 -3.662044930000000e-02 4.472088700000000e-02 -3.736504840000000e-02
            3.317437330000000e-01 -2.157998080000000e-01 3.955956450000000e-01 5.225036400000000e-01 4.471605140000000e-02 -3.735826500000000e-02 4.932237580000000e-02 -3.470391700000000e-02
78934945.7999999970 3.405832170000000e-02 -1.823679940000000e-02 3.208180290000000e-02 -1.214420570000000e-02 5.069231290000000e-01 4.113421540000000e-01 2.760532070000000e-01 -2.910282840000000e-01
            3.208345650000000e-02 -1.214421800000000e-02 3.128292590000000e-02 -1.960656440000000e-02 2.732861940000000e-01 -2.916851440000000e-01 5.067659630000000e-01 4.124138670000000e-01
            5.069283280000000e-01 4.113360810000000e-01 2.732956150000000e-01 -2.916846700000000e-01 3.165661890000000e-02 -1.530959310000000e-02 3.167724350000000e-02 -1.528518550000000e-02
            2.760434410000000e-01 -2.910352390000000e-01 5.067607410000000e-01 4.124170260000000e-01 3.167111410000000e-02 -1.528514040000000e-02 3.557850680000000e-02 -1.337559560000000e-02
79434528.7999999970 3.234095560000000e-02 7.786725630000000e-03 3.220098540000000e-02 1.274170760000000e-02 5.866304140000000e-01 2.780931830000000e-01 2.016960640000000e-01 -3.522892080000000e-01
            3.220166090000000e-02 1.275187690000000e-02 2.959085800000000e-02 6.394300000000000e-03 1.988249440000000e-01 -3.522768680000000e-01 5.867086419999999e-01 2.791520480000000e-01
            5.866322810000000e-01 2.780982040000000e-01 1.988368800000000e-01 -3.522710210000000e-01 2.966279650000000e-02 9.991545700000000e-03 3.050308080000000e-02 1.037700490000000e-02
            2.016978900000000e-01 -3.522861640000000e-01 5.867216620000000e-01 2.791536040000000e-01 3.050168560000000e-02 1.037519800000000e-02 3.356961570000000e-02 1.200890700000000e-02
79934111.7999999970 4.305244560000000e-02 3.128242290000000e-02 4.399623590000000e-02 3.453343440000000e-02 6.308250640000000e-01 1.314382820000000e-01 1.125025500000000e-01 -3.937592560000000e-01
            4.400163520000000e-02 3.453700930000000e-02 4.028165020000000e-02 2.984873400000000e-02 1.096967870000000e-01 -3.930462020000000e-01 6.311618000000000e-01 1.324417180000000e-01
            6.308314400000000e-01 1.314219940000000e-01 1.096843070000000e-01 -3.930359380000000e-01 3.979786410000000e-02 3.310379210000000e-02 4.145732640000000e-02 3.338295170000000e-02
            1.125047930000000e-01 -3.937326500000000e-01 6.311740320000000e-01 1.324359030000000e-01 4.146016880000000e-02 3.339198100000000e-02 4.371626620000000e-02 3.517494260000000e-02
80433694.7000000030 6.322740300000000e-02 4.666170220000000e-02 6.439380420000000e-02 4.806579290000000e-02 6.388010290000000e-01 -1.878679040000000e-02 1.473844930000000e-02 -4.112090340000000e-01
            6.437957860000000e-02 4.808270920000000e-02 6.043382390000000e-02 4.520078580000000e-02 1.217048230000000e-02 -4.098516900000000e-01 6.393515660000000e-01 -1.789954000000000e-02
            6.387841319999999e-01 -1.879347390000000e-02 1.216575170000000e-02 -4.098468920000000e-01 5.933281280000000e-02 4.854631560000000e-02 6.158888100000000e-02 4.839555140000000e-02
            1.471248900000000e-02 -4.112011750000000e-01 6.393535640000000e-01 -1.791701310000000e-02 6.159874480000000e-02 4.839856670000000e-02 6.329945280000000e-02 5.063373240000000e-02
80933277.7000000030 8.778343360000000e-02 5.077257040000000e-02 8.831700180000000e-02 5.055042270000000e-02 6.124615570000000e-01 -1.640919790000000e-01 -8.410588149999999e-02 -4.032125250000000e-01
            8.831317540000000e-02 5.054124270000000e-02 8.496412600000000e-02 4.930664440000000e-02 -8.624653920000000e-02 -4.012887550000000e-01 6.132114490000000e-01 -1.633693600000000e-01
            6.124664010000000e-01 -1.641035080000000e-01 -8.626448030000000e-02 -4.012925820000000e-01 8.331433880000000e-02 5.309126750000000e-02 8.590182770000000e-02 5.232812000000000e-02
            -8.411057570000000e-02 -4.032137670000000e-01 6.132104470000000e-01 -1.633610480000000e-01 8.590786020000001e-02 5.231666330000000e-02 8.733048350000000e-02 5.521874980000000e-02
81432860.7000000030 1.110429960000000e-01 4.322771960000000e-02 1.103263190000000e-01 4.193036380000000e-02 5.552484190000000e-01 -2.977687290000000e-01 -1.768254490000000e-01 -3.712296370000000e-01
            1.103188610000000e-01 4.195387150000000e-02 1.081854800000000e-01 4.176899130000000e-02 -1.784639510000000e-01 -3.688385390000000e-01 5.561464540000000e-01 -2.972115080000000e-01
            5.552543160000000e-01 -2.977521460000000e-01 -1.784568480000000e-01 -3.688471270000000e-01 1.062679870000000e-01 4.631454690000000e-02 1.088318480000000e-01 4.491568340000000e-02
            -1.768184740000000e-01 -3.712241280000000e-01 5.561372700000000e-01 -2.972128260000000e-01 1.088255200000000e-01 4.490153870000000e-02 1.103341430000000e-01 4.842061090000000e-02
81932443.7000000030 1.281081780000000e-01 2.613206890000000e-02 1.257998840000000e-01 2.459322520000000e-02 4.710148980000000e-01 -4.145227530000000e-01 -2.577606100000000e-01 -3.187446650000000e-01
            1.258059240000000e-01 2.459239060000000e-02 1.252396150000000e-01 2.469452650000000e-02 -2.587903100000000e-01 -3.160607540000000e-01 4.719882710000000e-01 -4.141798130000000e-01
            4.710070270000000e-01 -4.145046150000000e-01 -2.587998700000000e-01 -3.160648860000000e-01 1.233539280000000e-01 3.021190610000000e-02 1.256569100000000e-01 2.829815900000000e-02
            -2.577735690000000e-01 -3.187345520000000e-01 4.720051280000000e-01 -4.141771410000000e-01 1.256713030000000e-01 2.830665140000000e-02 1.274261500000000e-01 3.231079210000000e-02
82432026.7000000030 1.356246100000000e-01 3.317230540000000e-03 1.318094670000000e-01 2.378746950000000e-03 3.636832380000000e-01 -5.098617050000001e-01 -3.232584270000000e-01 -2.502720080000000e-01
            1.317912750000000e-01 2.363205100000000e-03 1.327491010000000e-01 1.903516230000000e-03 -3.236379170000000e-01 -2.474243500000000e-01 3.646913830000000e-01 -5.097691850000000e-01
            3.636772800000000e-01 -5.098597310000000e-01 -3.236525050000000e-01 -2.474346960000000e-01 1.313212860000000e-01 8.468300380000000e-03 1.332155750000000e-01 6.246532990000000e-03
            -3.232397410000000e-01 -2.502678490000000e-01 3.646863700000000e-01 -5.097669260000000e-01 1.332278880000000e-01 6.247805170000000e-03 1.353950350000000e-01 1.050088530000000e-02
82931609.7000000030 1.321504560000000e-01 -2.054915700000000e-02 1.272641640000000e-01 -2.014536770000000e-02 2.375337170000000e-01 -5.796147130000000e-01 -3.712580740000000e-01 -1.702528920000000e-01
            1.272722770000000e-01 -2.014525210000000e-02 1.292771860000000e-01 -2.192550040000000e-02 -3.710045640000000e-01 -1.674031540000000e-01 2.385285880000000e-01 -5.797627750000000e-01
            2.374987800000000e-01 -5.796167290000001e-01 -3.710043730000000e-01 -1.674137680000000e-01 1.287180800000000e-01 -1.440201250000000e-02 1.302408810000000e-01 -1.670839820000000e-02
            -3.712694090000000e-01 -1.702454600000000e-01 2.385158730000000e-01 -5.797499500000000e-01 1.302271340000000e-01 -1.671668830000000e-02 1.327872990000000e-01 -1.241441680000000e-02
83431192.7000000030 1.182150470000000e-01 -4.057678200000000e-02 1.130593660000000e-01 -3.838057310000000e-02 9.766552920000000e-02 -6.196936730000000e-01 -4.009074650000000e-01 -8.249065749999999e-02
            1.130530050000000e-01 -3.835356320000000e-02 1.153581620000000e-01 -4.194987880000000e-02 -4.000052850000000e-01 -7.978716900000001e-02 9.862487480000000e-02 -6.200559730000000e-01
            9.766647000000001e-02 -6.196925049999999e-01 -4.000122090000000e-01 -7.979446610000000e-02 1.160525260000000e-01 -3.370951300000000e-02 1.173427310000000e-01 -3.594994690000000e-02
            -4.009111170000000e-01 -8.249046790000000e-02 9.860362659999999e-02 -6.200526070000000e-01 1.173510550000000e-01 -3.594973040000000e-02 1.201012240000000e-01 -3.175413160000000e-02
83930775.5999999940 9.638553640000000e-02 -5.246556620000000e-02 9.184722630000000e-02 -4.833728530000000e-02 -4.935202280000000e-02 -6.265515280000000e-01 -4.115452300000000e-01 9.765389310000001e-03
            9.185119120000000e-02 -4.835815140000000e-02 9.357032720000000e-02 -5.381393770000000e-02 -4.100583050000000e-01 1.219675790000000e-02 -4.850448050000000e-02 -6.271199600000000e-01
            -4.935708280000000e-02 -6.265477490000000e-01 -4.100597410000000e-01 1.219851420000000e-02 9.578506090000000e-02 -4.527986620000000e-02 9.703778180000000e-02 -4.739114910000000e-02
            -4.115491620000000e-01 9.763384480000000e-03 -4.849848550000000e-02 -6.271328840000000e-01 9.702620910000000e-02 -4.738794370000000e-02 9.980260610000000e-02 -4.331587000000000e-02
84430358.5999999940 7.102658680000000e-02 -5.321111750000000e-02 6.800805020000000e-02 -4.750923420000000e-02 -1.953943940000000e-01 -5.980377650000001e-01 -4.023333410000000e-01 1.035287580000000e-01
            6.799479810000000e-02 -4.751960650000000e-02 6.824169839999999e-02 -5.455882790000000e-02 -4.003444980000000e-01 1.055855970000000e-01 -1.947182270000000e-01 -5.988054020000000e-01
            -1.954070880000000e-01 -5.980452160000000e-01 -4.003184860000000e-01 1.055878180000000e-01 7.210504830000000e-02 -4.619089530000000e-02 7.348439540000000e-02 -4.828045500000000e-02
            -4.023483820000000e-01 1.035285380000000e-01 -1.947234370000000e-01 -5.988063340000001e-01 7.348463220000000e-02 -4.827354980000000e-02 7.608492340000000e-02 -4.424474180000000e-02
84929941.5999999940 4.769044430000000e-02 -4.204515240000000e-02 4.684070240000000e-02 -3.549707340000000e-02 -3.311553090000000e-01 -5.344122040000000e-01 -3.721997580000000e-01 1.951773860000000e-01
            4.683851520000000e-02 -3.549300580000000e-02 4.493706520000000e-02 -4.340739590000000e-02 -3.697411380000000e-01 1.967123150000000e-01 -3.306694190000000e-01 -5.353113400000000e-01
            -3.311430230000000e-01 -5.344127900000000e-01 -3.697490260000000e-01 1.967226800000000e-01 5.040190850000000e-02 -3.575648330000000e-02 5.199690080000000e-02 -3.803198130000000e-02
            -3.721970750000000e-01 1.951719950000000e-01 -3.306642140000000e-01 -5.353183470000000e-01 5.199978800000000e-02 -3.802590680000000e-02 5.431198230000000e-02 -3.378677010000000e-02
85429524.5999999940 3.187965470000000e-02 -2.109194380000000e-02 3.356551750000000e-02 -1.461633920000000e-02 -4.471312150000000e-01 -4.391538640000000e-01 -3.204458320000000e-01 2.798029830000000e-01
            3.356820590000000e-02 -1.461199930000000e-02 2.915996320000000e-02 -2.249413520000000e-02 -3.176504110000000e-01 2.807632910000000e-01 -4.468611740000000e-01 -4.401259410000000e-01
            -4.471350150000000e-01 -4.391382290000000e-01 -3.176523010000000e-01 2.807448680000000e-01 3.595257650000000e-02 -1.596928940000000e-02 3.778518780000000e-02 -1.868793910000000e-02
            -3.204420390000000e-01 2.797998680000000e-01 -4.468737840000000e-01 -4.401241140000000e-01 3.777811160000000e-02 -1.868825480000000e-02 3.983574360000000e-02 -1.396161850000000e-02
85929107.5999999940 2.761683530000000e-02 4.957630340000000e-03 3.171927390000000e-02 1.030886210000000e-02 -5.353407790000000e-01 -3.189079340000000e-01 -2.479444110000000e-01 3.513941970000000e-01
            3.174022320000000e-02 1.032299370000000e-02 2.491265640000000e-02 3.513742390000000e-03 -2.449973130000000e-01 3.516521040000000e-01 -5.353210130000000e-01 -3.199103860000000e-01
            -5.353465180000000e-01 -3.189057380000000e-01 -2.449985010000000e-01 3.516512240000000e-01 3.260598340000000e-02 8.554231230000001e-03 3.447062440000000e-02 5.128328150000000e-03
            -2.479520520000000e-01 3.513989130000000e-01 -5.353302400000000e-01 -3.199358870000000e-01 3.447689790000000e-02 5.123727190000000e-03 3.646302690000000e-02 1.062687460000000e-02
86428690.5999999940 3.590029470000000e-02 2.990463900000000e-02 4.189828550000000e-02 3.322403820000000e-02 -5.907478470000000e-01 -1.826252920000000e-01 -1.581586980000000e-01 4.036750360000000e-01
            4.188961620000000e-02 3.323339350000000e-02 3.317879310000000e-02 2.841748570000000e-02 -1.552031080000000e-01 4.032283970000000e-01 -5.909587280000000e-01 -1.835987460000000e-01
            -5.907486890000000e-01 -1.826304510000000e-01 -1.551997320000000e-01 4.032309540000000e-01 4.130025470000000e-02 3.184348660000000e-02 4.287962200000000e-02 2.753871140000000e-02
            -1.581436090000000e-01 4.036833560000000e-01 -5.909756830000000e-01 -1.836068830000000e-01 4.289948000000000e-02 2.753568970000000e-02 4.516324260000000e-02 3.397170730000000e-02
86928273.5999999940 5.450370820000000e-02 4.794872710000000e-02 6.150357090000000e-02 4.862993350000000e-02 -6.117136190000000e-01 -3.972732110000000e-02 -5.703943090000000e-02 4.317161050000000e-01
            6.150545110000000e-02 4.862614920000000e-02 5.176885420000000e-02 4.642539560000000e-02 -5.428705210000000e-02 4.305666600000000e-01 -6.121326300000000e-01 -4.060687090000000e-02
            -6.117053520000000e-01 -3.972124910000000e-02 -5.428237480000000e-02 4.305816400000000e-01 5.982246060000000e-02 4.827074360000000e-02 6.076541960000000e-02 4.308290500000000e-02
            -5.705942430000000e-02 4.317266180000000e-01 -6.121499120000000e-01 -4.061893210000000e-02 6.075051890000000e-02 4.310091400000000e-02 6.373782570000000e-02 5.044614770000000e-02
87427856.5000000000 7.877628330000000e-02 5.533092880000000e-02 8.575868010000000e-02 5.315518430000000e-02 -5.993937710000000e-01 1.013903420000000e-01 4.774507570000000e-02 4.332432120000000e-01
            8.576096440000000e-02 5.314822230000000e-02 7.601052260000001e-02 5.380778840000000e-02 5.015558410000000e-02 4.314733950000000e-01 -6.000075660000000e-01 1.006371380000000e-01
            -5.993840210000000e-01 1.013885400000000e-01 5.014308150000000e-02 4.314728710000000e-01 8.364774899999999e-02 5.423546190000000e-02 8.349734390000001e-02 4.837374940000000e-02
            4.774238830000000e-02 4.332338910000000e-01 -6.000150110000000e-01 1.006332170000000e-01 8.349381480000000e-02 4.836603360000000e-02 8.761705459999999e-02 5.643510050000000e-02
87927439.5000000000 1.032144440000000e-01 5.108417980000000e-02 1.090901820000000e-01 4.623824120000000e-02 -5.565817120000000e-01 2.339339510000000e-01 1.486191020000000e-01 4.089043480000000e-01
            1.091020930000000e-01 4.624997060000000e-02 1.004028520000000e-01 4.954374480000000e-02 1.505469100000000e-01 4.066150940000000e-01 -5.573381570000000e-01 2.333464610000000e-01
            -5.565791340000000e-01 2.339531270000000e-01 1.505101880000000e-01 4.066247030000000e-01 1.073359720000000e-01 4.880023830000000e-02 1.057476640000000e-01 4.261538870000000e-02
            1.486318430000000e-01 4.088891870000000e-01 -5.573465440000001e-01 2.333517160000000e-01 1.057576260000000e-01 4.261557450000000e-02 1.113432690000000e-01 5.099067900000000e-02
88427022.5000000000 1.227124870000000e-01 3.670021530000000e-02 1.266403950000000e-01 2.983999970000000e-02 -4.866091860000000e-01 3.526290030000000e-01 2.392450850000000e-01 3.617345490000000e-01
            1.266452060000000e-01 2.983925870000000e-02 1.198552970000000e-01 3.519363320000000e-02 2.405548730000000e-01 3.590713140000000e-01 -4.874649470000000e-01 3.522283080000000e-01
            -4.865954990000000e-01 3.526283530000000e-01 2.405505260000000e-01 3.590696860000000e-01 1.258883030000000e-01 3.355080540000000e-02 1.227362490000000e-01 2.756131170000000e-02
            2.392446280000000e-01 3.617241760000000e-01 -4.874702920000000e-01 3.522296350000000e-01 1.227476010000000e-01 2.756725320000000e-02 1.299414640000000e-01 3.571823720000000e-02
88926605.5000000000 1.335959080000000e-01 1.553561960000000e-02 1.350391790000000e-01 7.557145590000000e-03 -3.928848160000000e-01 4.529410780000000e-01 3.151373800000000e-01 2.960217140000000e-01
            1.350475130000000e-01 7.554736870000000e-03 1.307463550000000e-01 1.406394800000000e-02 3.158077410000000e-01 2.931531840000000e-01 -3.938303130000000e-01 4.527490670000000e-01
            -3.928861780000000e-01 4.529407490000000e-01 3.158112170000000e-01 2.931483750000000e-01 1.358105790000000e-01 1.184766560000000e-02 1.311014930000000e-01 6.653960150000000e-03
            3.151395790000000e-01 2.960304940000000e-01 -3.938297080000000e-01 4.527607280000000e-01 1.311120060000000e-01 6.643001500000000e-03 1.398417390000000e-01 1.396980910000000e-02
89426188.5000000000 1.339905690000000e-01 -7.980182210000001e-03 1.328154060000000e-01 -1.605285750000000e-02 -2.791388170000000e-01 5.306355200000000e-01 3.736542990000000e-01 2.163021710000000e-01
            1.328225360000000e-01 -1.605973290000000e-02 1.311457030000000e-01 -9.438297310000000e-03 3.736562400000000e-01 2.133637810000000e-01 -2.800784990000000e-01 5.306665990000000e-01
            -2.791347940000000e-01 5.306407960000000e-01 3.736523880000000e-01 2.133655810000000e-01 1.352075940000000e-01 -1.193485470000000e-02 1.292951390000000e-01 -1.581033230000000e-02
            3.736523340000000e-01 2.162971050000000e-01 -2.800981640000000e-01 5.306736010000001e-01 1.292851090000000e-01 -1.582416740000000e-02 1.392632830000000e-01 -9.849138279999999e-03
89925771.5000000000 1.238944290000000e-01 -2.915570400000000e-02 1.204080020000000e-01 -3.636120250000000e-02 -1.497856190000000e-01 5.814409390000000e-01 4.133432900000000e-01 1.266374910000000e-01
            1.204043470000000e-01 -3.635715980000000e-02 1.210696930000000e-01 -3.057204400000000e-02 4.126669080000000e-01 1.237676440000000e-01 -1.507121780000000e-01 5.817040280000000e-01
            -1.497756150000000e-01 5.814567230000000e-01 4.126488120000000e-01 1.237607940000000e-01 1.242071720000000e-01 -3.312899600000000e-02 1.175771110000000e-01 -3.532410730000000e-02
            4.133369240000000e-01 1.266251340000000e-01 -1.507124010000000e-01 5.816943080000000e-01 1.175582220000000e-01 -3.532974520000000e-02 1.282349070000000e-01 -3.108268260000000e-02
90425354.5000000000 1.052542590000000e-01 -4.356038260000000e-02 1.000963500000000e-01 -4.918078600000000e-02 -1.058773480000000e-02 6.015000490000000e-01 4.332247280000000e-01 3.052594290000000e-02
            1.001130240000000e-01 -4.917415810000000e-02 1.024621740000000e-01 -4.498234120000000e-02 4.319184280000000e-01 2.789574040000000e-02 -1.142128970000000e-02 6.019593730000000e-01
            -1.058205710000000e-02 6.015070900000000e-01 4.319428950000000e-01 2.789143400000000e-02 1.048084990000000e-01 -4.739152940000000e-02 9.809241480000000e-02 -4.770346490000000e-02
            4.332301120000000e-01 3.052779020000000e-02 -1.141735600000000e-02 6.019572820000000e-01 9.809065150000000e-02 -4.769990630000000e-02 1.087910230000000e-01 -4.536757250000000e-02
90924937.4000000060 8.188024770000001e-02 -4.791275400000000e-02 7.592142700000000e-02 -5.154511360000000e-02 1.310858040000000e-01 5.879386900000000e-01 4.323263190000000e-01 -6.873338750000001e-02
            7.593258490000000e-02 -5.155268790000000e-02 7.910596650000000e-02 -4.931656570000000e-02 4.304657800000000e-01 -7.102432929999999e-02 1.303686250000000e-01 5.885765860000000e-01
            1.310696910000000e-01 5.879330610000000e-01 4.304734070000000e-01 -7.102603670000000e-02 8.080692770000000e-02 -5.146563630000000e-02 7.468324079999999e-02 -4.997923440000000e-02
            4.323287850000000e-01 -6.873384310000000e-02 1.303787060000000e-01 5.885839490000000e-01 7.468524350000000e-02 -4.999076870000000e-02 8.474236380000000e-02 -4.944152260000000e-02
91424520.4000000060 5.888922390000000e-02 -4.078827940000000e-02 5.304818420000000e-02 -4.248536470000000e-02 2.663700550000000e-01 5.400203480000000e-01 4.093893450000000e-01 -1.674686850000000e-01
            5.305848290000000e-02 -4.248386000000000e-02 5.616045020000000e-02 -4.223182060000000e-02 4.070250180000000e-01 -1.692834530000000e-01 2.658355770000000e-01 5.408256020000000e-01
            2.663702830000000e-01 5.400239240000000e-01 4.070263020000000e-01 -1.692852150000000e-01 5.734108180000000e-02 -4.407054990000000e-02 5.239138790000000e-02 -4.111903740000000e-02
            4.093912000000000e-01 -1.674500330000000e-01 2.658364600000000e-01 5.408182870000000e-01 5.238899450000000e-02 -4.113831740000000e-02 6.123566940000000e-02 -4.201088570000000e-02
91924103.4000000060 4.178763150000000e-02 -2.352749490000000e-02 3.680590950000000e-02 -2.366276220000000e-02 3.859152010000000e-01 4.599854490000000e-01 3.634672570000000e-01 -2.607789850000000e-01
            3.681249860000000e-02 -2.368069720000000e-02 3.909407350000000e-02 -2.499586820000000e-02 3.607160480000000e-01 -2.620107870000000e-01 3.856048580000000e-01 4.609039260000000e-01
            3.859296830000000e-01 4.599955710000000e-01 3.607106800000000e-01 -2.620326150000000e-01 3.987278810000000e-02 -2.647182070000000e-02 3.650349530000000e-02 -2.264556300000000e-02
            3.634496410000000e-01 -2.607804000000000e-01 3.855966740000000e-01 4.608858430000000e-01 3.649660170000000e-02 -2.264214320000000e-02 4.370847430000000e-02 -2.438146110000000e-02
92423686.4000000060 3.490881200000000e-02 -9.310898630000000e-05 3.126215520000000e-02 6.652226590000000e-04 4.813799690000000e-01 3.533834860000000e-01 2.949382100000000e-01 -3.425475670000000e-01
            3.126730390000000e-02 6.596275800000000e-04 3.220479500000000e-02 -1.578173990000000e-03 2.919492700000000e-01 -3.431072510000000e-01 4.812909790000000e-01 3.543313450000000e-01
            4.813870380000000e-01 3.533869280000000e-01 2.919403710000000e-01 -3.431016050000000e-01 3.266817390000000e-02 -2.695134590000000e-03 3.105961090000000e-02 1.342213440000000e-03
            2.949251950000000e-01 -3.425453330000000e-01 4.812919800000000e-01 3.543086910000000e-01 3.106438630000000e-02 1.346230000000000e-03 3.649535000000000e-02 -5.464629720000000e-04
92923269.4000000060 3.999377740000000e-02 2.379512760000000e-02 3.784391850000000e-02 2.463829600000000e-02 5.469070360000000e-01 2.281696620000000e-01 2.065910340000000e-01 -4.061182380000000e-01
            3.785273380000000e-02 2.464270050000000e-02 3.729602550000000e-02 2.226602210000000e-02 2.035432540000000e-01 -4.059496080000000e-01 5.470201540000000e-01 2.291039570000000e-01
            5.468932680000000e-01 2.281880740000000e-01 2.035465820000000e-01 -4.059453440000000e-01 3.750823580000000e-02 2.151610230000000e-02 3.754560990000000e-02 2.509382760000000e-02
            2.066031460000000e-01 -4.061083970000000e-01 5.470182740000000e-01 2.290884710000000e-01 3.754593660000000e-02 2.511244170000000e-02 4.134145710000000e-02 2.371324310000000e-02
93422852.4000000060 5.565915760000000e-02 4.227046910000000e-02 5.474774550000000e-02 4.251223080000000e-02 5.798907980000000e-01 9.340457250000000e-02 1.040110590000000e-01 -4.458090410000000e-01
            5.476123820000000e-02 4.250630840000000e-02 5.293836020000000e-02 4.071228970000000e-02 1.010781120000000e-01 -4.449063580000000e-01 5.802147910000000e-01 9.426486169999999e-02
            5.798893899999999e-01 9.340909620000000e-02 1.010835600000000e-01 -4.449250690000000e-01 5.295620750000000e-02 4.035570060000000e-02 5.425028290000000e-02 4.292737840000000e-02
            1.040122210000000e-01 -4.458088400000000e-01 5.802098460000000e-01 9.427001929999999e-02 5.426519890000000e-02 4.293254340000000e-02 5.682460000000000e-02 4.257853600000000e-02
93922435.4000000060 7.784274989999999e-02 5.118860470000000e-02 7.769145510000000e-02 5.027350730000000e-02 5.806601460000000e-01 -4.256299810000000e-02 -5.340232980000000e-03 -4.583416180000000e-01
            7.768576930000000e-02 5.028066190000000e-02 7.510438940000000e-02 4.961200950000000e-02 -7.975115769999999e-03 -4.567721320000000e-01 5.811714640000000e-01 -4.181585280000000e-02
            5.806624690000000e-01 -4.257652980000000e-02 -7.971766290000000e-03 -4.567707050000000e-01 7.499991620000000e-02 4.964659530000000e-02 7.701884310000000e-02 5.089024040000000e-02
            -5.352037370000000e-03 -4.583499720000000e-01 5.811781930000000e-01 -4.182494690000000e-02 7.702487410000000e-02 5.087731710000000e-02 7.890439660000000e-02 5.191434890000000e-02
94422018.2999999970 1.012857880000000e-01 4.890297300000000e-02 1.011800920000000e-01 4.668926900000000e-02 5.514422010000000e-01 -1.729052670000000e-01 -1.135066630000000e-01 -4.434516910000000e-01
            1.011833600000000e-01 4.667272320000000e-02 9.853301700000000e-02 4.734505040000000e-02 -1.156884080000000e-01 -4.413130380000000e-01 5.520955110000000e-01 -1.722902200000000e-01
            5.514369130000000e-01 -1.728821570000000e-01 -1.156915520000000e-01 -4.413152910000000e-01 9.837750020000000e-02 4.780487370000000e-02 1.004758730000000e-01 4.760474430000000e-02
            -1.135013430000000e-01 -4.434549220000000e-01 5.520866700000000e-01 -1.722827410000000e-01 1.004816870000000e-01 4.759242550000000e-02 1.023106370000000e-01 5.006775020000000e-02
94921601.2999999970 1.208945340000000e-01 3.644027020000000e-02 1.201446750000000e-01 3.303403180000000e-02 4.950597170000000e-01 -2.921724830000000e-01 -2.134785240000000e-01 -4.034192190000000e-01
            1.201394140000000e-01 3.302365260000000e-02 1.181019470000000e-01 3.487976980000000e-02 -2.150942160000000e-01 -4.008485010000000e-01 4.958445710000000e-01 -2.917317340000000e-01
            4.950664870000000e-01 -2.921744240000000e-01 -2.150905280000000e-01 -4.008530790000000e-01 1.179810910000000e-01 3.578841540000000e-02 1.196156690000000e-01 3.431418790000000e-02
            -2.134669980000000e-01 -4.034156460000000e-01 4.958438030000000e-01 -2.917201180000000e-01 1.196079430000000e-01 3.431715210000000e-02 1.219637480000000e-01 3.802218130000000e-02
95421184.2999999970 1.327307330000000e-01 1.673037110000000e-02 1.307964320000000e-01 1.256275250000000e-02 4.145948310000000e-01 -3.958659170000000e-01 -2.999523770000000e-01 -3.422277560000000e-01
            1.308123990000000e-01 1.256126840000000e-02 1.299246890000000e-01 1.518998800000000e-02 -3.009177920000000e-01 -3.393504880000000e-01 4.154484120000000e-01 -3.955962170000000e-01
            4.146086500000000e-01 -3.958597870000000e-01 -3.009299940000000e-01 -3.393549860000000e-01 1.299642250000000e-01 1.650500390000000e-02 1.306713810000000e-01 1.416518670000000e-02
            -2.999684340000000e-01 -3.422311240000000e-01 4.154512250000000e-01 -3.955970980000000e-01 1.306677440000000e-01 1.417567740000000e-02 1.339682460000000e-01 1.871618150000000e-02
95920767.2999999970 1.346267490000000e-01 -6.114377700000000e-03 1.312325190000000e-01 -1.038543950000000e-02 3.132379030000000e-01 -4.797195970000000e-01 -3.694946550000000e-01 -2.643074170000000e-01
            1.312289020000000e-01 -1.039160880000000e-02 1.318041430000000e-01 -7.635432350000000e-03 -3.697825090000000e-01 -2.613225690000000e-01 3.141208970000000e-01 -4.796485080000000e-01
            3.132355040000000e-01 -4.797157320000000e-01 -3.697808050000000e-01 -2.613256980000000e-01 1.320842800000000e-01 -5.923643940000000e-03 1.316436140000000e-01 -8.617559040000000e-03
            -3.694891320000000e-01 -2.643096560000000e-01 3.141237560000000e-01 -4.796689590000000e-01 1.316589310000000e-01 -8.616134060000001e-03 1.360916910000000e-01 -3.740539720000000e-03
96420350.2999999970 1.261398580000000e-01 -2.751766110000000e-02 1.213746210000000e-01 -3.118671680000000e-02 1.948098300000000e-01 -5.394168570000000e-01 -4.200238160000000e-01 -1.739800270000000e-01
            1.213583420000000e-01 -3.117723010000000e-02 1.233339660000000e-01 -2.900968730000000e-02 -4.196122040000000e-01 -1.710085600000000e-01 1.956867670000000e-01 -5.395741250000000e-01
            1.948251310000000e-01 -5.394255150000000e-01 -4.196264060000000e-01 -1.710227320000000e-01 1.239870580000000e-01 -2.694035340000000e-02 1.224480020000000e-01 -2.948355810000000e-02
            -4.200160780000000e-01 -1.739985860000000e-01 1.956859800000000e-01 -5.395821860000000e-01 1.224498260000000e-01 -2.947053640000000e-02 1.279613250000000e-01 -2.480653890000000e-02
96919933.2999999970 1.088304170000000e-01 -4.305515280000000e-02 1.030696030000000e-01 -4.548402080000000e-02 6.440792400000001e-02 -5.708970400000000e-01 -4.501393660000000e-01 -7.503659479999999e-02
            1.030784040000000e-01 -4.548492700000000e-02 1.060671500000000e-01 -4.453021760000000e-02 -4.490761800000000e-01 -7.221558660000001e-02 6.522047330000000e-02 -5.712285650000000e-01
            6.439382220000001e-02 -5.708657650000000e-01 -4.490873120000000e-01 -7.221588549999999e-02 1.071796000000000e-01 -4.221774820000000e-02 1.047894430000000e-01 -4.413942460000000e-02
            -4.501325270000000e-01 -7.503719809999999e-02 6.521486870000000e-02 -5.712363310000000e-01 1.047910980000000e-01 -4.414598010000000e-02 1.111274030000000e-01 -4.011314110000000e-02
97419516.2999999970 8.605682680000000e-02 -4.921329160000000e-02 7.993208700000000e-02 -5.006448050000000e-02 -7.137040529999999e-02 -5.707707240000000e-01 -4.585688060000000e-01 2.902492850000000e-02
            7.992479490000000e-02 -5.006174190000000e-02 8.331283400000000e-02 -5.067361000000000e-02 -4.568985800000000e-01 3.154643670000000e-02 -7.065606410000000e-02 -5.713124080000000e-01
            -7.136058050000001e-02 -5.707779770000000e-01 -4.569072780000000e-01 3.154443220000000e-02 8.497874420000000e-02 -4.826245810000000e-02 8.217078110000001e-02 -4.929928940000000e-02
            -4.585695480000000e-01 2.903352370000000e-02 -7.066470240000000e-02 -5.713129340000001e-01 8.217324010000000e-02 -4.929674250000000e-02 8.889519329999999e-02 -4.616499450000000e-02
97919099.2000000030 6.264152000000001e-02 -4.420274040000000e-02 5.687970350000000e-02 -4.339784570000000e-02 -2.042435660000000e-01 -5.375209000000000e-01 -4.438889740000000e-01 1.343024470000000e-01
            5.688123700000000e-02 -4.339599230000000e-02 5.994375660000000e-02 -4.567226120000000e-02 -4.416474210000000e-01 1.363737410000000e-01 -2.036882240000000e-01 -5.382089430000000e-01
            -2.042553240000000e-01 -5.375057940000000e-01 -4.416483000000000e-01 1.363549570000000e-01 6.217513050000000e-02 -4.334270080000000e-02 5.940563300000000e-02 -4.343609290000000e-02
            -4.438895870000000e-01 1.342894470000000e-01 -2.036897540000000e-01 -5.381865890000000e-01 5.940405040000000e-02 -4.343447400000000e-02 6.601970350000000e-02 -4.121961960000000e-02
98418682.2000000030 4.395218290000000e-02 -2.868835700000000e-02 3.929348790000000e-02 -2.654282000000000e-02 -3.251983050000000e-01 -4.723158760000000e-01 -4.048452980000000e-01 2.358564080000000e-01
            3.928402170000000e-02 -2.654116650000000e-02 4.127314190000000e-02 -3.020056510000000e-02 -4.021813670000000e-01 2.373660080000000e-01 -3.248287080000000e-01 -4.730964850000000e-01
            -3.252145040000000e-01 -4.723033820000000e-01 -4.021824780000000e-01 2.373603870000000e-01 4.405913090000000e-02 -2.815429100000000e-02 4.179808450000000e-02 -2.748825130000000e-02
            -4.048733280000000e-01 2.358512980000000e-01 -3.248241260000000e-01 -4.730884250000000e-01 4.179508150000000e-02 -2.748279720000000e-02 4.787848600000000e-02 -2.599287210000000e-02
98918265.2000000030 3.462889780000000e-02 -6.119707380000000e-03 3.157481280000000e-02 -3.167038540000000e-03 -4.257287430000000e-01 -3.794984480000000e-01 -3.414638350000000e-01 3.274731910000000e-01
            3.156259110000000e-02 -3.168015410000000e-03 3.196600940000000e-02 -7.660501100000000e-03 -3.384866880000000e-01 3.283263420000000e-01 -4.255414820000000e-01 -3.803581150000000e-01
            -4.257326010000000e-01 -3.794942060000000e-01 -3.384883140000000e-01 3.283200930000000e-01 3.520792770000000e-02 -6.025902540000000e-03 3.371881350000000e-02 -4.961346230000000e-03
            -3.414453700000000e-01 3.274640780000000e-01 -4.255446110000000e-01 -3.803584610000000e-01 3.371127490000000e-02 -4.943448360000000e-03 3.898346130000000e-02 -3.817906910000000e-03
99417848.2000000030 3.698817530000000e-02 1.818234510000000e-02 3.577114240000000e-02 2.115870230000000e-02 -4.993603030000000e-01 -2.662028510000000e-01 -2.559292140000000e-01 4.022052990000000e-01
            3.576598800000000e-02 2.116191960000000e-02 3.433344570000000e-02 1.661006460000000e-02 -2.528218220000000e-01 4.023333180000000e-01 -4.993780140000000e-01 -2.670566130000000e-01
            -4.993569380000000e-01 -2.662019410000000e-01 -2.528279710000000e-01 4.023220370000000e-01 3.786909680000000e-02 1.771141400000000e-02 3.725497110000000e-02 1.872027110000000e-02
            -2.559337280000000e-01 4.022039550000000e-01 -4.993869230000000e-01 -2.670573490000000e-01 3.725448240000000e-02 1.870830030000000e-02 4.166325540000000e-02 1.997993810000000e-02
99917431.2000000030 5.035650340000000e-02 3.836554380000000e-02 5.081454250000000e-02 4.059751350000000e-02 -5.427492210000000e-01 -1.408075410000000e-01 -1.533040780000000e-01 4.537169920000000e-01
            5.081569490000000e-02 4.059484100000000e-02 4.768491060000000e-02 3.676605200000000e-02 -1.502377400000000e-01 4.530989870000000e-01 -5.429603280000000e-01 -1.416369760000000e-01
            -5.427404510000000e-01 -1.408068480000000e-01 -1.502482630000000e-01 4.530934760000000e-01 5.137027530000000e-02 3.725495570000000e-02 5.148045350000000e-02 3.774177400000000e-02
            -1.532946330000000e-01 4.537176380000000e-01 -5.429701260000001e-01 -1.416374210000000e-01 5.148147630000000e-02 3.774269490000000e-02 5.519017670000000e-02 3.955785290000000e-02
100417014.0000000000 7.122003220000001e-02 4.984884460000000e-02 7.294017479999999e-02 5.066782390000000e-02 -5.554215170000000e-01 -1.147256110000000e-02 -4.083284730000000e-02 4.778537640000000e-01
            7.293552740000001e-02 5.068191830000000e-02 6.850737599999999e-02 4.823319370000000e-02 -3.802103850000000e-02 4.765121070000000e-01 -5.558239730000000e-01 -1.222682790000000e-02
            -5.554340160000000e-01 -1.148354600000000e-02 -3.801316940000000e-02 4.765173710000000e-01 7.219672789999999e-02 4.811516620000000e-02 7.268593410000000e-02 4.775706890000000e-02
            -4.083168200000000e-02 4.778377250000000e-01 -5.558326370000000e-01 -1.221823900000000e-02 7.270535320000000e-02 4.775355370000000e-02 7.603262130000001e-02 5.044296530000000e-02
100916597.0000000000 9.454620260000000e-02 5.049374730000000e-02 9.683053090000000e-02 4.951035520000000e-02 -5.389659180000000e-01 1.149443320000000e-01 7.331933089999999e-02 4.733600380000000e-01
            9.683211920000000e-02 4.950321430000000e-02 9.180554310000000e-02 4.887667160000000e-02 7.573270429999999e-02 4.714060190000000e-01 -5.395220350000000e-01 1.143202380000000e-01
            -5.389627200000000e-01 1.149537930000000e-01 7.574065070000000e-02 4.714000630000000e-01 9.534132460000000e-02 4.816812220000000e-02 9.577234279999999e-02 4.682531570000000e-02
            7.332982520000000e-02 4.733403780000000e-01 -5.395376600000000e-01 1.143283500000000e-01 9.577595310000001e-02 4.682215680000000e-02 9.921816350000000e-02 5.049951760000000e-02
101416180.0000000000 1.152182040000000e-01 4.073273480000000e-02 1.173128950000000e-01 3.784504220000000e-02 -4.958073740000000e-01 2.330563530000000e-01 1.816309050000000e-01 4.417885150000000e-01
            1.173004540000000e-01 3.784924900000000e-02 1.124603740000000e-01 3.911106300000000e-02 1.835089820000000e-01 4.393547610000000e-01 -4.964873810000000e-01 2.325835230000000e-01
            -4.957966330000000e-01 2.330491300000000e-01 1.834885090000000e-01 4.393382730000000e-01 1.157210330000000e-01 3.786112500000000e-02 1.155739480000000e-01 3.561408680000000e-02
            1.816100110000000e-01 4.418025410000000e-01 -4.964640580000000e-01 2.325828200000000e-01 1.155731230000000e-01 3.562375390000000e-02 1.196358180000000e-01 4.015735270000000e-02
101915763.0000000000 1.291222260000000e-01 2.306526120000000e-02 1.302539360000000e-01 1.854976030000000e-02 -4.285315530000000e-01 3.383350490000000e-01 2.780157650000000e-01 3.866466920000000e-01
            1.302502160000000e-01 1.854604770000000e-02 1.263569180000000e-01 2.146748430000000e-02 2.792805020000000e-01 3.838306350000000e-01 -4.293052020000000e-01 3.380331130000000e-01
            -4.285226180000000e-01 3.383375760000000e-01 2.793010790000000e-01 3.838420420000000e-01 1.291965130000000e-01 1.971285250000000e-02 1.280923480000000e-01 1.689115080000000e-02
            2.780318660000000e-01 3.866505700000000e-01 -4.292967510000000e-01 3.380431250000000e-01 1.280931710000000e-01 1.688040170000000e-02 1.331450310000000e-01 2.200074010000000e-02
102415346.0000000000 1.336626490000000e-01 1.316710740000000e-03 1.333080220000000e-01 -4.292742290000000e-03 -3.398840190000000e-01 4.266351280000000e-01 3.583768890000000e-01 3.121976180000000e-01
            1.332969390000000e-01 -4.283754980000000e-03 1.308855740000000e-01 -2.548989550000000e-04 3.589522620000000e-01 3.091985090000000e-01 -3.406952760000000e-01 4.265330560000000e-01
            -3.398989800000000e-01 4.266304790000000e-01 3.589553910000000e-01 3.092017540000000e-01 1.332265300000000e-01 -2.427935260000000e-03 1.309173910000000e-01 -5.342650220000000e-03
            3.583758250000000e-01 3.121964910000000e-01 -3.406972100000000e-01 4.265059830000000e-01 1.309305700000000e-01 -5.350025090000000e-03 1.371824520000000e-01 -1.739393300000000e-04
102914929.0000000000 1.281081250000000e-01 -2.008933470000000e-02 1.259750150000000e-01 -2.609586960000000e-02 -2.331112770000000e-01 4.936244630000000e-01 4.199012980000000e-01 2.228474850000000e-01
            1.259870120000000e-01 -2.610561940000000e-02 1.253381950000000e-01 -2.164596130000000e-02 4.197899040000000e-01 2.197853730000000e-01 -2.339350490000000e-01 4.936787630000000e-01
            -2.331284940000000e-01 4.936362150000000e-01 4.197940160000000e-01 2.197926190000000e-01 1.270827100000000e-01 -2.410697930000000e-02 1.235428040000000e-01 -2.661506530000000e-02
            4.199145580000000e-01 2.228412820000000e-01 -2.339389490000000e-01 4.936953210000000e-01 1.235385950000000e-01 -2.661124940000000e-02 1.310069580000000e-01 -2.190613850000000e-02
103414512.0000000000 1.134835720000000e-01 -3.678883930000000e-02 1.096546890000000e-01 -4.245199820000000e-02 -1.125465250000000e-01 5.350694370000000e-01 4.607703620000000e-01 1.225450090000000e-01
            1.096621110000000e-01 -4.246911060000000e-02 1.107477350000000e-01 -3.832502740000000e-02 4.599707540000000e-01 1.196054280000000e-01 -1.133129270000000e-01 5.353423360000000e-01
            -1.125419350000000e-01 5.350762090000000e-01 4.599635750000000e-01 1.196023960000000e-01 1.118294010000000e-01 -4.100117440000000e-02 1.073038420000000e-01 -4.251595010000000e-02
            4.607721460000000e-01 1.225377010000000e-01 -1.133137800000000e-01 5.353465390000000e-01 1.073007160000000e-01 -4.250637600000000e-02 1.157219120000000e-01 -3.880475200000000e-02
103914095.0000000000 9.271374150000000e-02 -4.508958010000000e-02 8.755425740000000e-02 -4.983471720000000e-02 1.595336950000000e-02 5.472457010000000e-01 4.793581860000000e-01 1.506686700000000e-02
            8.755367920000000e-02 -4.981794480000000e-02 9.001354790000000e-02 -4.661678810000000e-02 4.779176830000000e-01 1.236167920000000e-02 1.525788200000000e-02 5.476761850000000e-01
            1.594831610000000e-02 5.472473430000000e-01 4.779154100000000e-01 1.237183860000000e-02 9.033196920000000e-02 -4.936195220000000e-02 8.528353510000000e-02 -4.951450540000000e-02
            4.793541520000000e-01 1.507078790000000e-02 1.526371690000000e-02 5.476762200000000e-01 8.528152350000000e-02 -4.950731020000000e-02 9.419132990000000e-02 -4.718349390000000e-02
104413678.0000000000 7.019086889999999e-02 -4.289558940000000e-02 6.423344559999999e-02 -4.626793380000000e-02 1.448421270000000e-01 5.278751810000000e-01 4.740250540000000e-01 -9.560062760000000e-02
            6.424579599999999e-02 -4.627983790000000e-02 6.749993270000000e-02 -4.439536270000000e-02 4.719795130000000e-01 -9.789746069999999e-02 1.442570390000000e-01 5.284628900000000e-01
            1.448265250000000e-01 5.278881530000000e-01 4.719754610000000e-01 -9.789774320000000e-02 6.707753449999999e-02 -4.703251270000000e-02 6.206649660000000e-02 -4.566087080000000e-02
            4.740220240000000e-01 -9.559837070000000e-02 1.442604250000000e-01 5.284511420000000e-01 6.204304530000000e-02 -4.566202860000000e-02 7.087721090000000e-02 -4.484584740000000e-02
104913261.0000000000 5.107193790000000e-02 -3.021891970000000e-02 4.504488140000000e-02 -3.221475560000000e-02 2.654648480000000e-01 4.771066950000000e-01 4.432508070000000e-01 -2.045062680000000e-01
            4.505057910000000e-02 -3.221462500000000e-02 4.842496410000000e-02 -3.176590070000000e-02 4.407194500000000e-01 -2.062929020000000e-01 2.650334730000000e-01 4.778100780000000e-01
            2.654602040000000e-01 4.771002100000000e-01 4.407215120000000e-01 -2.062962070000000e-01 4.723148860000000e-02 -3.409267730000000e-02 4.289250400000000e-02 -3.129856340000000e-02
            4.432588340000000e-01 -2.044958470000000e-01 2.650381460000000e-01 4.777974170000000e-01 4.287832940000000e-02 -3.129183780000000e-02 5.099897950000000e-02 -3.187443610000000e-02
105412844.0000000000 4.015569490000000e-02 -9.840872590000001e-03 3.462711790000000e-02 -1.065113360000000e-02 3.692838570000000e-01 3.981905120000000e-01 3.865546270000000e-01 -3.053915520000000e-01
            3.462596630000000e-02 -1.066287570000000e-02 3.753123580000000e-02 -1.142467460000000e-02 3.836505830000000e-01 -3.065409680000000e-01 3.690454780000000e-01 3.989717830000000e-01
            3.692754580000000e-01 3.982048220000000e-01 3.836540800000000e-01 -3.065304350000000e-01 3.563078870000000e-02 -1.327149730000000e-02 3.249426430000000e-02 -9.395084650000000e-03
            3.865584780000000e-01 -3.053843220000000e-01 3.690483690000000e-01 3.989750650000000e-01 3.249910400000000e-02 -9.388418100000000e-03 3.935800390000000e-02 -1.100391750000000e-02
105912427.0000000000 4.027860360000000e-02 1.334719800000000e-02 3.564444300000000e-02 1.326294330000000e-02 4.494347970000000e-01 2.972547300000000e-01 3.055393160000000e-01 -3.910654360000000e-01
            3.562508150000000e-02 1.325099180000000e-02 3.764867760000000e-02 1.172371370000000e-02 3.024391360000000e-01 -3.915074010000000e-01 4.494027240000000e-01 2.980282780000000e-01
            4.494328920000000e-01 2.972381790000000e-01 3.024256450000000e-01 -3.915042430000000e-01 3.512645910000000e-02 1.054494250000000e-02 3.356874950000000e-02 1.498433100000000e-02
            3.055479650000000e-01 -3.910790920000000e-01 4.493816440000000e-01 2.980316770000000e-01 3.357030890000000e-02 1.497948550000000e-02 3.886445210000000e-02 1.285059110000000e-02
106412010.0000000000 5.135266460000000e-02 3.362386510000000e-02 4.775040560000000e-02 3.368980310000000e-02 5.017950190000000e-01 1.819707470000000e-01 2.046101830000000e-01 -4.546630640000000e-01
            4.775023620000000e-02 3.367372910000000e-02 4.871790320000000e-02 3.196874380000000e-02 2.014630610000000e-01 -4.543490340000000e-01 5.019174250000000e-01 1.827572350000000e-01
            5.017930030000000e-01 1.819841670000000e-01 2.014748410000000e-01 -4.543471740000000e-01 4.576507640000000e-02 3.160790860000000e-02 4.587567750000000e-02 3.596544440000000e-02
            2.046008260000000e-01 -4.546791030000000e-01 5.019319350000000e-01 1.827558820000000e-01 4.586046440000000e-02 3.594385970000000e-02 4.950515710000000e-02 3.397246350000000e-02
106911593.0000000000 7.051731390000000e-02 4.618602990000000e-02 6.780120060000000e-02 4.584372340000000e-02 5.251355220000000e-01 6.028466610000000e-02 9.065919410000001e-02 -4.911044090000000e-01
            6.778586200000000e-02 4.585525840000000e-02 6.785306960000000e-02 4.453587410000000e-02 8.768918840000001e-02 -4.900492770000000e-01 5.254782420000000e-01 6.099604470000000e-02
            5.251406610000000e-01 6.029029220000000e-02 8.769372139999999e-02 -4.900513730000000e-01 6.466962140000000e-02 4.507897640000000e-02 6.628823790000000e-02 4.869908400000000e-02
            9.064452970000000e-02 -4.911060030000000e-01 5.254565470000000e-01 6.100381710000000e-02 6.628851450000001e-02 4.869118910000000e-02 6.844185600000000e-02 4.746659440000000e-02
107411176.0000000000 9.306579850000000e-02 4.842920490000000e-02 9.081353130000000e-02 4.723858170000000e-02 5.204427990000000e-01 -6.105235320000000e-02 -2.811286090000000e-02 -4.981262350000000e-01
            9.080843070000000e-02 4.723604860000000e-02 9.037479060000000e-02 4.673783920000000e-02 -3.073950220000000e-02 -4.964130960000000e-01 5.209174200000000e-01 -6.044781100000000e-02
            5.204549120000000e-01 -6.105694370000000e-02 -3.074411300000000e-02 -4.964108610000000e-01 8.715885220000000e-02 4.824534200000000e-02 8.990806179999999e-02 5.065067350000000e-02
            -2.812289720000000e-02 -4.981227980000000e-01 5.209297340000000e-01 -6.042669850000000e-02 8.991131310000000e-02 5.064991050000000e-02 9.098405520000000e-02 5.065200780000000e-02
107910759.0000000000 1.138961050000000e-01 4.022412230000000e-02 1.115943820000000e-01 3.805365320000000e-02 4.897179950000000e-01 -1.766019260000000e-01 -1.437118320000000e-01 -4.764179600000000e-01
            1.115915580000000e-01 3.804579810000000e-02 1.111763390000000e-01 3.854211190000000e-02 -1.458548820000000e-01 -4.741364720000000e-01 4.903109500000000e-01 -1.761101660000000e-01
            4.897098360000000e-01 -1.766027100000000e-01 -1.458421020000000e-01 -4.741565560000000e-01 1.081657390000000e-01 4.099690160000000e-02 1.115043240000000e-01 4.186300670000000e-02
            -1.437063740000000e-01 -4.764237660000000e-01 4.903019230000000e-01 -1.760922360000000e-01 1.114997380000000e-01 4.186686230000000e-02 1.120065970000000e-01 4.338528770000000e-02
108410342.0000000000 1.287027210000000e-01 2.368573510000000e-02 1.257490050000000e-01 2.065439300000000e-02 4.351613300000000e-01 -2.819401170000000e-01 -2.494658040000000e-01 -4.288570300000000e-01
            1.257485440000000e-01 2.065200110000000e-02 1.259724790000000e-01 2.202803820000000e-02 -2.509935240000000e-01 -4.261698170000000e-01 4.358117840000000e-01 -2.815883030000000e-01
            4.351568430000000e-01 -2.819470830000000e-01 -2.509952060000000e-01 -4.261740870000000e-01 1.233737550000000e-01 2.537701790000000e-02 1.266812640000000e-01 2.464855120000000e-02
            -2.494691370000000e-01 -4.288500500000000e-01 4.358173610000000e-01 -2.815937650000000e-01 1.266890410000000e-01 2.466139520000000e-02 1.272468460000000e-01 2.774209560000000e-02
108909925.0000000000 1.346251790000000e-01 2.384028180000000e-03 1.305649870000000e-01 -1.145863720000000e-03 3.590803000000000e-01 -3.729648450000000e-01 -3.403825580000000e-01 -3.594845630000000e-01
            1.305778360000000e-01 -1.135554880000000e-03 1.318754880000000e-01 7.445032259999999e-04 -3.412513160000000e-01 -3.565300680000000e-01 3.598233990000000e-01 -3.727881760000000e-01
            3.590691600000000e-01 -3.729592770000000e-01 -3.412657390000000e-01 -3.565227270000000e-01 1.299246170000000e-01 4.882885120000000e-03 1.326262020000000e-01 2.754536810000000e-03
            -3.403811730000000e-01 -3.594817650000000e-01 3.598206400000000e-01 -3.727876600000000e-01 1.326256180000000e-01 2.760106020000000e-03 1.338054810000000e-01 7.229752550000000e-03
109409508.0000000000 1.305329680000000e-01 -1.940821150000000e-02 1.251387950000000e-01 -2.282715720000000e-02 2.641869160000000e-01 -4.455125830000000e-01 -4.130706610000000e-01 -2.726218750000000e-01
            1.251513680000000e-01 -2.282865330000000e-02 1.278095410000000e-01 -2.101899000000000e-02 -4.132503780000000e-01 -2.695541640000000e-01 2.649339020000000e-01 -4.454997110000000e-01
            2.641714270000000e-01 -4.455236770000000e-01 -4.132419910000000e-01 -2.695621990000000e-01 1.266417060000000e-01 -1.622528950000000e-02 1.283273880000000e-01 -1.940833850000000e-02
            -4.130666130000000e-01 -2.726210870000000e-01 2.649473510000000e-01 -4.454997820000000e-01 1.283285330000000e-01 -1.940238410000000e-02 1.305105540000000e-01 -1.392810540000000e-02
109909091.0000000000 1.171215830000000e-01 -3.730703350000000e-02 1.104534240000000e-01 -3.996133490000000e-02 1.541079460000000e-01 -4.952459440000000e-01 -4.651206160000000e-01 -1.724086770000000e-01
            1.104487010000000e-01 -3.996835380000000e-02 1.144144240000000e-01 -3.889551990000000e-02 -4.646104630000000e-01 -1.693758350000000e-01 1.548537360000000e-01 -4.954271480000000e-01
            1.541187530000000e-01 -4.952617640000000e-01 -4.646184590000000e-01 -1.693849470000000e-01 1.142255770000000e-01 -3.366091350000000e-02 1.146564640000000e-01 -3.740422830000000e-02
            -4.651302780000000e-01 -1.724135690000000e-01 1.548528050000000e-01 -4.954269580000000e-01 1.146542710000000e-01 -3.738996910000000e-02 1.180470580000000e-01 -3.137481290000000e-02
110408674.0000000000 9.689409150000000e-02 -4.751395080000000e-02 8.929807550000000e-02 -4.881513860000000e-02 3.398618800000000e-02 -5.182196560000000e-01 -4.945844730000000e-01 -6.275344330000000e-02
            8.930089460000000e-02 -4.880402270000000e-02 9.421289090000000e-02 -4.909089880000000e-02 -4.933903900000000e-01 -5.991451410000000e-02 3.466495580000000e-02 -5.185428350000000e-01
            3.398331970000000e-02 -5.182124050000000e-01 -4.933788510000000e-01 -5.990128510000000e-02 9.507436820000000e-02 -4.364902900000000e-02 9.425743520000000e-02 -4.742983920000000e-02
            -4.945905910000000e-01 -6.275923400000000e-02 3.465662540000000e-02 -5.185503150000000e-01 9.425066870000000e-02 -4.742582460000000e-02 9.888715630000000e-02 -4.136315740000000e-02
110908257.0000000000 7.389351969999999e-02 -4.748129770000000e-02 6.599586000000000e-02 -4.704093630000000e-02 -8.940009000000000e-02 -5.115131010000000e-01 -4.995084560000000e-01 5.220514160000000e-02
            6.598979230000000e-02 -4.705108410000000e-02 7.123862270000000e-02 -4.906091570000000e-02 -4.976739440000000e-01 5.471562990000000e-02 -8.881417450000000e-02 -5.120123240000000e-01
            -8.939270169999999e-02 -5.115182940000000e-01 -4.976659150000000e-01 5.472124260000000e-02 7.322321710000000e-02 -4.370751400000000e-02 7.133708860000000e-02 -4.707267860000000e-02
            -4.994884890000000e-01 5.220034330000000e-02 -8.881413550000000e-02 -5.119989590000000e-01 7.133586200000000e-02 -4.707926050000000e-02 7.699407380000001e-02 -4.142755020000000e-02
111407840.0000000000 5.317389490000000e-02 -3.679951990000000e-02 4.572091420000000e-02 -3.451751270000000e-02 -2.079143360000000e-01 -4.744480640000000e-01 -4.780746870000000e-01 1.675390740000000e-01
            4.570977070000000e-02 -3.452991160000000e-02 5.057252030000000e-02 -3.840065040000000e-02 -4.756973380000000e-01 1.695662370000000e-01 -2.074628110000000e-01 -4.750542890000000e-01
            -2.079034370000000e-01 -4.744471820000000e-01 -4.756873580000000e-01 1.695694570000000e-01 5.360038060000000e-02 -3.340408080000000e-02 5.100030090000000e-02 -3.609635820000000e-02
            -4.780620320000000e-01 1.675386440000000e-01 -2.074592310000000e-01 -4.750598670000000e-01 5.100563910000000e-02 -3.609291880000000e-02 5.732633920000000e-02 -3.109439220000000e-02
111907423.0000000000 3.967668180000000e-02 -1.758314820000000e-02 3.338140970000000e-02 -1.372164810000000e-02 -3.131815030000000e-01 -4.091845370000000e-01 -4.293279290000000e-01 2.769668240000000e-01
            3.338812380000000e-02 -1.372231610000000e-02 3.708830650000000e-02 -1.920191060000000e-02 -4.265520000000000e-01 2.784018210000000e-01 -3.129155330000000e-01 -4.098866110000000e-01
            -3.131751940000000e-01 -4.091971210000000e-01 -4.265456750000000e-01 2.784083570000000e-01 4.107929800000000e-02 -1.485214500000000e-02 3.812996900000000e-02 -1.679229060000000e-02
            -4.293439200000000e-01 2.769675610000000e-01 -3.128988690000000e-01 -4.098887700000000e-01 3.811243860000000e-02 -1.677143080000000e-02 4.476890310000000e-02 -1.251782440000000e-02
112407006.0000000000 3.672215810000000e-02 5.712650770000000e-03 3.219542060000000e-02 1.064037880000000e-02 -3.980408860000000e-01 -3.208224160000000e-01 -3.543041760000000e-01 3.731670730000000e-01
            3.220798290000000e-02 1.063166590000000e-02 3.412595450000000e-02 4.062953510000000e-03 -3.512423620000000e-01 3.738877650000000e-01 -3.979241320000000e-01 -3.215431890000000e-01
            -3.980514100000000e-01 -3.208151950000000e-01 -3.512347730000000e-01 3.738711650000000e-01 3.884339310000000e-02 7.565588270000000e-03 3.591973350000000e-02 6.340944060000000e-03
            -3.542949830000000e-01 3.731571410000000e-01 -3.979316800000000e-01 -3.215567440000000e-01 3.591193050000000e-02 6.320914690000000e-03 4.253049310000000e-02 9.949808390000000e-03
112906589.0000000000 4.494625540000000e-02 2.750490800000000e-02 4.249979550000000e-02 3.272969490000000e-02 -4.577418140000000e-01 -2.163433550000000e-01 -2.566915450000000e-01 4.487068970000000e-01
            4.250012540000000e-02 3.271875650000000e-02 4.234171610000000e-02 2.581613060000000e-02 -2.535226470000000e-01 4.487074930000000e-01 -4.577929030000000e-01 -2.170482540000000e-01
            -4.577517450000000e-01 -2.163422320000000e-01 -2.535210390000000e-01 4.486882030000000e-01 4.755930250000000e-02 2.834842260000000e-02 4.488684690000000e-02 2.755477410000000e-02
            -2.566918400000000e-01 4.487103470000000e-01 -4.577907170000000e-01 -2.170557580000000e-01 4.486932160000000e-02 2.754674190000000e-02 5.125476230000000e-02 3.079413370000000e-02
113406172.0000000000 6.208411710000000e-02 4.269741690000000e-02 6.171054340000000e-02 4.741574200000000e-02 -4.903848490000000e-01 -1.032324830000000e-01 -1.429002960000000e-01 4.977501990000000e-01
            6.170589190000000e-02 4.742832100000000e-02 5.946457690000000e-02 4.097479790000000e-02 -1.398472990000000e-01 4.969770820000000e-01 -4.905951530000000e-01 -1.039101860000000e-01
            -4.904001340000000e-01 -1.032225100000000e-01 -1.398411880000000e-01 4.969761800000000e-01 6.492445540000000e-02 4.248707170000000e-02 6.260294630000000e-02 4.182231120000000e-02
            -1.428987840000000e-01 4.977578980000000e-01 -4.906021120000000e-01 -1.039067210000000e-01 6.258977220000000e-02 4.184273020000000e-02 6.865661789999999e-02 4.494503050000000e-02
113905755.0000000000 8.380488220000000e-02 4.812704870000000e-02 8.519333649999999e-02 5.160136970000000e-02 -4.963374460000000e-01 1.184068610000000e-02 -2.105331980000000e-02 5.170540230000000e-01
            8.519614650000000e-02 5.159867760000000e-02 8.118063270000000e-02 4.640916810000000e-02 -1.826591990000000e-02 5.155734990000000e-01 -4.967013550000000e-01 1.123272370000000e-02
            -4.963285450000000e-01 1.184373290000000e-02 -1.826232540000000e-02 5.155748200000000e-01 8.667639520000001e-02 4.685973380000000e-02 8.458130880000000e-02 4.608699040000000e-02
            -2.106236380000000e-02 5.170460770000000e-01 -4.966995460000000e-01 1.124436310000000e-02 8.457724710000000e-02 4.607654320000000e-02 9.041527830000000e-02 4.932705250000000e-02
114405338.0000000000 1.051335760000000e-01 4.317397550000000e-02 1.076389530000000e-01 4.483352800000000e-02 -4.771232120000000e-01 1.234891600000000e-01 1.005864870000000e-01 5.063124290000000e-01
            1.076353280000000e-01 4.482992040000000e-02 1.024596890000000e-01 4.145420990000000e-02 1.029331940000000e-01 5.042373090000000e-01 -4.776221640000000e-01 1.229926780000000e-01
            -4.771356460000000e-01 1.234921990000000e-01 1.029315830000000e-01 5.042510620000000e-01 1.077620150000000e-01 4.086471910000000e-02 1.057053860000000e-01 3.978886650000000e-02
            1.005658180000000e-01 5.063177240000000e-01 -4.776186210000000e-01 1.229908730000000e-01 1.057097060000000e-01 3.979518920000000e-02 1.115528130000000e-01 4.332631810000000e-02
114904921.0000000000 1.215362980000000e-01 2.943691150000000e-02 1.244428660000000e-01 2.901683110000000e-02 -4.346746890000000e-01 2.273573210000000e-01 2.146900570000000e-01 4.677707100000000e-01
            1.244345410000000e-01 2.900878050000000e-02 1.188658620000000e-01 2.770956760000000e-02 2.165064260000000e-01 4.652205930000000e-01 -4.352659810000000e-01 2.269962910000000e-01
            -4.346831190000000e-01 2.273555010000000e-01 2.165048290000000e-01 4.652231350000000e-01 1.237551580000000e-01 2.615529820000000e-02 1.214317000000000e-01 2.472607370000000e-02
            2.147146950000000e-01 4.677703890000000e-01 -4.352590910000000e-01 2.269913240000000e-01 1.214325630000000e-01 2.473490700000000e-02 1.275749930000000e-01 2.858291340000000e-02
115404504.0000000000 1.298953010000000e-01 1.008908670000000e-02 1.323830830000000e-01 7.668632020000000e-03 -3.708959380000000e-01 3.195274680000000e-01 3.156675590000000e-01 4.050304390000000e-01
            1.323869940000000e-01 7.698244110000000e-03 1.272027550000000e-01 8.411050890000001e-03 3.168318150000000e-01 4.021417890000000e-01 -3.715578270000000e-01 3.193092290000000e-01
            -3.708995070000000e-01 3.195427780000000e-01 3.168301080000000e-01 4.021491170000000e-01 1.315174670000000e-01 5.932607600000000e-03 1.286168000000000e-01 4.358680710000000e-03
            3.156686750000000e-01 4.050269320000000e-01 -3.715456450000000e-01 3.193024660000000e-01 1.286207260000000e-01 4.337213480000000e-03 1.353331090000000e-01 8.350219560000000e-03
115904087.0000000000 1.287311750000000e-01 -1.076411520000000e-02 1.301174460000000e-01 -1.477618430000000e-02 -2.879680640000000e-01 3.959344160000000e-01 3.993820380000000e-01 3.222577250000000e-01
            1.301457140000000e-01 -1.477975720000000e-02 1.260314700000000e-01 -1.242734020000000e-02 3.998486840000000e-01 3.192100300000000e-01 -2.886637060000000e-01 3.958550430000000e-01
            -2.879483490000000e-01 3.959370700000000e-01 3.998426940000000e-01 3.192206170000000e-01 1.295392890000000e-01 -1.565331370000000e-02 1.258968020000000e-01 -1.713385560000000e-02
            3.993738950000000e-01 3.222601450000000e-01 -2.886607910000000e-01 3.958618480000000e-01 1.259105830000000e-01 -1.713137100000000e-02 1.333710910000000e-01 -1.328802780000000e-02
116403670.0000000000 1.182827840000000e-01 -2.884088230000000e-02 1.181998530000000e-01 -3.389981140000000e-02 -1.888784610000000e-01 4.523197980000000e-01 4.628475140000000e-01 2.236532770000000e-01
            1.181819180000000e-01 -3.389520220000000e-02 1.156282220000000e-01 -3.049343220000000e-02 4.626259330000000e-01 2.205743500000000e-01 -1.895614260000000e-01 4.524050670000000e-01
            -1.888754760000000e-01 4.523173940000000e-01 4.626187670000000e-01 2.205765030000000e-01 1.181752030000000e-01 -3.431129720000000e-02 1.137399670000000e-01 -3.527589170000000e-02
            4.628465300000000e-01 2.236590530000000e-01 -1.895562010000000e-01 4.523926130000000e-01 1.137420740000000e-01 -3.529802970000000e-02 1.219664760000000e-01 -3.194143270000000e-02
116903253.0000000000 1.006410060000000e-01 -4.027771300000000e-02 9.888228720000000e-02 -4.570760890000000e-02 -7.800320030000001e-02 4.844881040000000e-01 5.036942500000000e-01 1.132281880000000e-01
            9.887444160000000e-02 -4.569832660000000e-02 9.799686080000000e-02 -4.192696540000000e-02 5.027875160000000e-01 1.102739630000000e-01 -7.864522150000000e-02 4.847273120000000e-01
            -7.798572080000001e-02 4.845054910000000e-01 5.027762400000000e-01 1.102728420000000e-01 9.944611590000001e-02 -4.609578400000000e-02 9.441071790000000e-02 -4.618193230000000e-02
            5.036968650000000e-01 1.132259790000000e-01 -7.863731890000000e-02 4.847534360000000e-01 9.439009730000000e-02 -4.616783280000000e-02 1.032106580000000e-01 -4.374574070000000e-02
117402836.0000000000 7.941793990000000e-02 -4.233248570000000e-02 7.614706110000000e-02 -4.746798600000000e-02 3.862882530000000e-02 4.891708820000000e-01 5.196302910000000e-01 -4.832646800000000e-03
            7.615212239999999e-02 -4.745206390000000e-02 7.679389040000000e-02 -4.396392780000000e-02 5.180584060000000e-01 -7.495247350000000e-03 3.806071730000000e-02 4.895383010000000e-01
            3.862967580000000e-02 4.891595590000000e-01 5.180574060000001e-01 -7.510293600000000e-03 7.712015300000000e-02 -4.821318540000000e-02 7.177683850000000e-02 -4.709360940000000e-02
            5.196296590000000e-01 -4.825251760000000e-03 3.805441730000000e-02 4.895476590000000e-01 7.177102600000000e-02 -4.709210210000000e-02 8.084091430000000e-02 -4.587385800000000e-02
117902419.0000000000 5.937647730000000e-02 -3.408916040000000e-02 5.499730520000000e-02 -3.845941990000000e-02 1.534539300000000e-01 4.648360170000000e-01 5.085073760000000e-01 -1.255327410000000e-01
            5.498799490000000e-02 -3.845648640000000e-02 5.679941380000000e-02 -3.573108540000000e-02 5.063585309999999e-01 -1.277800750000000e-01 1.530096540000000e-01 4.653578440000000e-01
            1.534554710000000e-01 4.648348670000000e-01 5.063525150000000e-01 -1.277885990000000e-01 5.597825890000000e-02 -3.979824960000000e-02 5.084710280000000e-02 -3.733187930000000e-02
            5.085217500000000e-01 -1.255380750000000e-01 1.530068180000000e-01 4.653522710000000e-01 5.084305860000000e-02 -3.731757620000000e-02 5.965562370000000e-02 -3.743672050000000e-02
118402002.0000000000 4.541383460000000e-02 -1.707521360000000e-02 4.041826990000000e-02 -2.045936530000000e-02 2.584198250000000e-01 4.127121100000000e-01 4.689531980000000e-01 -2.426522710000000e-01
            4.041816390000000e-02 -2.046632400000000e-02 4.282955860000000e-02 -1.874830040000000e-02 4.662909110000000e-01 -2.443391420000000e-01 2.580982400000000e-01 4.133168410000000e-01
            2.584057370000000e-01 4.127055990000000e-01 4.662977430000000e-01 -2.443173930000000e-01 4.099611670000000e-02 -2.238840770000000e-02 3.662660430000000e-02 -1.860495760000000e-02
            4.689393340000000e-01 -2.426362370000000e-01 2.580835920000000e-01 4.133071420000000e-01 3.662056130000000e-02 -1.861883040000000e-02 4.462371490000000e-02 -1.999024190000000e-02
118901585.0000000000 4.113788580000000e-02 4.766421040000000e-03 3.609216610000000e-02 2.328603040000000e-03 3.461386210000000e-01 3.368880530000000e-01 4.012330020000000e-01 -3.487011830000000e-01
            3.609118290000000e-02 2.326038460000000e-03 3.857847850000000e-02 3.059222530000000e-03 3.982581530000000e-01 -3.497168790000000e-01 3.459767980000000e-01 3.375181900000000e-01
            3.461459200000000e-01 3.368776610000000e-01 3.982550500000000e-01 -3.497180120000000e-01 3.587021670000000e-02 7.822781270000000e-05 3.276244600000000e-02 4.862364400000000e-03
            4.012355370000000e-01 -3.486927550000000e-01 3.459652450000000e-01 3.375185770000000e-01 3.275567090000000e-02 4.845812760000000e-03 3.951399650000000e-02 2.517057940000000e-03
119401168.0000000000 4.776875650000000e-02 2.613713060000000e-02 4.306578710000000e-02 2.437964740000000e-02 4.114287320000000e-01 2.435570140000000e-01 3.084251820000000e-01 -4.358905830000000e-01
            4.307672940000000e-02 2.437601590000000e-02 4.519627650000000e-02 2.440472910000000e-02 3.052834880000000e-01 -4.361790500000000e-01 4.114211790000000e-01 2.442316890000000e-01
            4.114361860000000e-01 2.435646970000000e-01 3.052844610000000e-01 -4.361652060000000e-01 4.188884960000000e-02 2.220334650000000e-02 4.036312580000000e-02 2.748565230000000e-02
            3.084274980000000e-01 -4.358928610000000e-01 4.114214570000000e-01 2.442222950000000e-01 4.036079140000000e-02 2.747866900000000e-02 4.551951330000000e-02 2.468040100000000e-02
119900751.0000000000 6.362785760000000e-02 4.187649950000000e-02 5.952538120000000e-02 4.036862600000000e-02 4.517982570000000e-01 1.398231080000000e-01 1.963907360000000e-01 -4.975816220000000e-01
            5.951940990000000e-02 4.037744580000000e-02 6.104894230000000e-02 4.011140160000000e-02 1.932733490000000e-01 -4.971079580000000e-01 4.519358250000000e-01 1.404610180000000e-01
            4.517966660000000e-01 1.398210140000000e-01 1.932677330000000e-01 -4.971192620000000e-01 5.734935460000000e-02 3.872384340000000e-02 5.759086200000000e-02 4.392055070000000e-02
            1.963912130000000e-01 -4.975716790000000e-01 4.519476530000000e-01 1.404535410000000e-01 5.756497800000000e-02 4.391046190000000e-02 6.102158490000000e-02 4.125396840000000e-02
120400334.0000000000 8.481531470000001e-02 4.847764030000000e-02 8.124311070000000e-02 4.675237140000000e-02 4.670677730000000e-01 3.212221050000000e-02 7.301937620000000e-02 -5.295469260000000e-01
            8.123384829999999e-02 4.675286190000000e-02 8.221109159999999e-02 4.670916510000000e-02 7.010048920000000e-02 -5.283561380000000e-01 4.673478680000000e-01 3.272002000000000e-02
            4.670523670000000e-01 3.212412540000000e-02 7.008990950000001e-02 -5.283506660000000e-01 7.837699099999999e-02 4.608184550000000e-02 8.022797540000000e-02 5.049356420000000e-02
            7.301252020000000e-02 -5.295595160000000e-01 4.673394030000000e-01 3.272630270000000e-02 8.022640650000000e-02 5.049355820000000e-02 8.205454890000000e-02 4.863403520000000e-02
120899917.0000000000 1.064433100000000e-01 4.480899300000000e-02 1.031756000000000e-01 4.245903960000000e-02 4.583897630000000e-01 -7.424930289999999e-02 -5.323453890000000e-02 -5.305761340000000e-01
            1.031594730000000e-01 4.246384700000000e-02 1.038167960000000e-01 4.303350490000000e-02 -5.575659110000000e-02 -5.287544080000000e-01 4.587783200000000e-01 -7.376035240000001e-02
            4.583924270000000e-01 -7.425569790000000e-02 -5.576220490000000e-02 -5.287571240000000e-01 1.000130880000000e-01 4.304854830000000e-02 1.031232250000000e-01 4.613275550000000e-02
            -5.322486000000000e-02 -5.305813880000000e-01 4.587994710000000e-01 -7.375913880000000e-02 1.031215370000000e-01 4.612684370000000e-02 1.037285450000000e-01 4.559084660000000e-02
121399500.0000000000 1.239659910000000e-01 3.204885230000000e-02 1.205761440000000e-01 2.886787110000000e-02 4.273760100000000e-01 -1.751182230000000e-01 -1.745270180000000e-01 -5.021264790000000e-01
            1.205443400000000e-01 2.887157150000000e-02 1.213191770000000e-01 3.026769220000000e-02 -1.765551510000000e-01 -4.997506290000000e-01 4.278815940000000e-01 -1.747166380000000e-01
            4.273683190000000e-01 -1.751152680000000e-01 -1.765481070000000e-01 -4.997557030000000e-01 1.176499810000000e-01 3.076387410000000e-02 1.214351590000000e-01 3.213483410000000e-02
            -1.745228520000000e-01 -5.021183820000000e-01 4.278898590000000e-01 -1.747272540000000e-01 1.214447020000000e-01 3.213877740000000e-02 1.213873370000000e-01 3.328651100000000e-02
121899083.0000000000 1.340256400000000e-01 1.308600570000000e-02 1.300136960000000e-01 9.097265590000000e-03 3.755886960000000e-01 -2.667473260000000e-01 -2.845936640000000e-01 -4.473107040000000e-01
            1.299940010000000e-01 9.086982600000000e-03 1.313714600000000e-01 1.133912470000000e-02 -2.860069500000000e-01 -4.445692320000000e-01 3.761664440000000e-01 -2.664709200000000e-01
            3.756017650000000e-01 -2.667406690000000e-01 -2.859910520000000e-01 -4.445731950000000e-01 1.278273410000000e-01 1.213372100000000e-02 1.316158750000000e-01 1.163930130000000e-02
            -2.845810540000000e-01 -4.473009700000000e-01 3.761597880000000e-01 -2.664665920000000e-01 1.316039790000000e-01 1.163975860000000e-02 1.315863540000000e-01 1.463391690000000e-02
122398666.0000000000 1.348192320000000e-01 -8.189984500000001e-03 1.297159880000000e-01 -1.276210510000000e-02 3.047452160000000e-01 -3.453180340000000e-01 -3.786390870000000e-01 -3.701534670000000e-01
            1.297100680000000e-01 -1.275879830000000e-02 1.321764900000000e-01 -9.925920300000000e-03 -3.793985830000000e-01 -3.671757250000000e-01 3.053751020000000e-01 -3.451879960000000e-01
            3.047451810000000e-01 -3.453354860000000e-01 -3.794022660000000e-01 -3.671765590000000e-01 1.286703250000000e-01 -8.989478100000000e-03 1.317501330000000e-01 -1.121606730000000e-02
            -3.786413330000000e-01 -3.701478230000000e-01 3.053654440000000e-01 -3.451864980000000e-01 1.317525740000000e-01 -1.121136850000000e-02 1.324375500000000e-01 -6.519453610000000e-03
122898249.0000000000 1.262724830000000e-01 -2.761182680000000e-02 1.197814240000000e-01 -3.232141560000000e-02 2.171683180000000e-01 -4.067515810000000e-01 -4.532222430000000e-01 -2.748100230000000e-01
            1.197719030000000e-01 -3.231861990000000e-02 1.236628600000000e-01 -2.934115990000000e-02 -4.532901570000000e-01 -2.717328030000000e-01 2.178088320000000e-01 -4.067536950000000e-01
            2.171838730000000e-01 -4.067400890000000e-01 -4.532899960000000e-01 -2.717266590000000e-01 1.200637800000000e-01 -2.835070620000000e-02 1.218475080000000e-01 -3.189266330000000e-02
            -4.532270460000000e-01 -2.747971970000000e-01 2.177979180000000e-01 -4.067688150000000e-01 1.218309060000000e-01 -3.189888600000000e-02 1.238014970000000e-01 -2.592948270000000e-02
123397832.0000000000 1.100466410000000e-01 -4.130290150000000e-02 1.020737660000000e-01 -4.557077890000000e-02 1.164555640000000e-01 -4.468131460000000e-01 -5.055058710000000e-01 -1.653298230000000e-01
            1.020664890000000e-01 -4.556399670000000e-02 1.074343020000000e-01 -4.299930050000000e-02 -5.048612420000000e-01 -1.623199200000000e-01 1.170528280000000e-01 -4.469556340000000e-01
            1.164462230000000e-01 -4.468063790000000e-01 -5.048582579999999e-01 -1.623182740000000e-01 1.035993810000000e-01 -4.201710620000000e-02 1.036473790000000e-01 -4.624662560000000e-02
            -5.055041400000000e-01 -1.653321730000000e-01 1.170548870000000e-01 -4.469697380000000e-01 1.036505760000000e-01 -4.625144030000000e-02 1.073016570000000e-01 -3.959756550000000e-02
123897415.0000000000 8.936984689999999e-02 -4.621542880000000e-02 8.005806980000001e-02 -4.954654140000000e-02 7.777268130000000e-03 -4.618121230000000e-01 -5.328990640000000e-01 -4.597762770000000e-02
            8.009198950000000e-02 -4.955303610000000e-02 8.678956829999999e-02 -4.791425170000000e-02 -5.315954700000000e-01 -4.317806530000000e-02 8.322731480000000e-03 -4.621218450000000e-01
            7.770418680000000e-03 -4.618194680000000e-01 -5.316166020000000e-01 -4.317151030000000e-02 8.248521170000001e-02 -4.687229900000000e-02 8.066541350000000e-02 -5.109912640000000e-02
            -5.329082830000000e-01 -4.597106610000000e-02 8.331124739999999e-03 -4.621184360000000e-01 8.068176560000000e-02 -5.110443340000000e-02 8.614502480000000e-02 -4.444576260000000e-02
124396997.0000000000 6.870745559999999e-02 -4.111197470000000e-02 5.845042400000000e-02 -4.303475900000000e-02 -1.020633890000000e-01 -4.495917830000000e-01 -5.330298150000000e-01 7.840608110000000e-02
            5.844271980000000e-02 -4.301957540000000e-02 6.613853810000000e-02 -4.280304070000000e-02 -5.311011380000000e-01 8.082874180000001e-02 -1.016080070000000e-01 -4.500088650000000e-01
            -1.020859010000000e-01 -4.495854840000000e-01 -5.311102880000000e-01 8.083456140000000e-02 6.120134810000000e-02 -4.151235660000000e-02 5.764657060000000e-02 -4.499516490000000e-02
            -5.330316170000000e-01 7.840044890000000e-02 -1.016106650000000e-01 -4.500063320000000e-01 5.765071880000000e-02 -4.500523830000000e-02 6.481340810000000e-02 -3.909614520000000e-02
124896580.0000000000 5.284065470000000e-02 -2.688395010000000e-02 4.214587900000000e-02 -2.717682800000000e-02 -2.054034140000000e-01 -4.103015280000000e-01 -5.040082170000000e-01 2.017149320000000e-01
            4.214059720000000e-02 -2.717503180000000e-02 5.028893230000000e-02 -2.860187780000000e-02 -5.015566700000000e-01 2.036216320000000e-01 -2.050528070000000e-01 -4.108007200000000e-01
            -2.054036660000000e-01 -4.103017280000000e-01 -5.015604630000000e-01 2.036432450000000e-01 4.459666000000000e-02 -2.680831470000000e-02 3.974300240000000e-02 -2.892367100000000e-02
            -5.040090170000000e-01 2.017124640000000e-01 -2.050683670000000e-01 -4.108144550000000e-01 3.974677630000000e-02 -2.889830260000000e-02 4.819517580000000e-02 -2.435400380000000e-02
125396163.0000000000 4.568786070000000e-02 -6.871130850000000e-03 3.509983110000000e-02 -5.549556860000000e-03 -2.948472050000000e-01 -3.469531620000000e-01 -4.455267290000000e-01 3.165769440000000e-01
            3.511719820000000e-02 -5.550900750000000e-03 4.316646680000000e-02 -8.629615199999999e-03 -4.426788030000000e-01 3.178806150000000e-01 -2.946238180000000e-01 -3.475255390000000e-01
            -2.948335420000000e-01 -3.469464910000000e-01 -4.426678030000000e-01 3.178830790000000e-01 3.674512980000000e-02 -5.985034190000000e-03 3.121294370000000e-02 -6.303613550000000e-03
            -4.455196830000000e-01 3.165838870000000e-01 -2.946252860000000e-01 -3.475286490000000e-01 3.120925640000000e-02 -6.306358660000000e-03 4.033056860000000e-02 -3.485752780000000e-03
125895746.0000000000 4.908030980000000e-02 1.395349680000000e-02 3.905800470000000e-02 1.666616430000000e-02 -3.646969620000000e-01 -2.648999500000000e-01 -3.597003440000000e-01 4.149856800000000e-01
            3.907021930000000e-02 1.666651100000000e-02 4.655646420000000e-02 1.216069100000000e-02 -3.566374040000000e-01 4.155737850000000e-01 -3.646284840000000e-01 -2.654741180000000e-01
            -3.646886240000000e-01 -2.648937630000000e-01 -3.566356680000000e-01 4.155729950000000e-01 3.957082990000000e-02 1.593972460000000e-02 3.408846740000000e-02 1.759989280000000e-02
            -3.596993090000000e-01 4.149716320000000e-01 -3.646176510000000e-01 -2.654897190000000e-01 3.408166450000000e-02 1.761278340000000e-02 4.314180670000000e-02 1.850774650000000e-02
126395329.0000000000 6.194804320000000e-02 3.039825110000000e-02 5.281978130000000e-02 3.415594860000000e-02 -4.117650640000000e-01 -1.706254060000000e-01 -2.516216000000000e-01 4.895958630000000e-01
            5.282035730000000e-02 3.415899250000000e-02 5.941177180000000e-02 2.860342460000000e-02 -2.485042330000000e-01 4.894277100000000e-01 -4.118412360000000e-01 -1.712263110000000e-01
            -4.117697020000000e-01 -1.706171380000000e-01 -2.485031350000000e-01 4.894305180000000e-01 5.218470190000000e-02 3.375960490000000e-02 4.747213890000000e-02 3.725629230000000e-02
            -2.516185240000000e-01 4.895924530000000e-01 -4.118485060000000e-01 -1.712186350000000e-01 4.746776990000000e-02 3.724809470000000e-02 5.578133370000000e-02 3.634111900000000e-02
126894912.0000000000 8.095307240000001e-02 3.860206820000000e-02 7.278576859999999e-02 4.294721380000000e-02 -4.352600370000000e-01 -7.045349020000000e-02 -1.286811620000000e-01 5.351783930000000e-01
            7.278898910000001e-02 4.293215360000000e-02 7.838871500000000e-02 3.678195850000000e-02 -1.256738220000000e-01 5.342830110000000e-01 -4.354887780000000e-01 -7.099796849999999e-02
            -4.352647150000000e-01 -7.047121689999999e-02 -1.256863580000000e-01 5.342900269999999e-01 7.127699960000000e-02 4.340409750000000e-02 6.798498910000000e-02 4.836569900000000e-02
            -1.286672040000000e-01 5.351710930000000e-01 -4.354851500000000e-01 -7.101392740000000e-02 6.797273600000001e-02 4.836229380000000e-02 7.489050740000000e-02 4.599489400000000e-02
127394495.0000000000 1.013836420000000e-01 3.687436920000000e-02 9.407660660000000e-02 4.141206320000000e-02 -4.359210750000000e-01 3.033066730000000e-02 6.815557830000000e-04 5.494180829999999e-01
            9.409230790000001e-02 4.141261490000000e-02 9.880637690000001e-02 3.507233240000000e-02 3.358501670000000e-03 5.478582770000000e-01 -4.362327610000000e-01 2.984340530000000e-02
            -4.359253980000000e-01 3.031928930000000e-02 3.370749900000000e-03 5.478658610000000e-01 9.215216480000001e-02 4.308608400000000e-02 9.071520320000000e-02 4.894873350000000e-02
            6.860099040000000e-04 5.494131140000000e-01 -4.362483210000000e-01 2.984197160000000e-02 9.071331470000001e-02 4.895184280000000e-02 9.580494720000000e-02 4.569276130000000e-02
127894078.0000000000 1.186254760000000e-01 2.596767040000000e-02 1.119080180000000e-01 3.042428730000000e-02 -4.150302590000000e-01 1.275384130000000e-01 1.282561060000000e-01 5.327323990000000e-01
            1.118948350000000e-01 3.042404960000000e-02 1.160255350000000e-01 2.416209010000000e-02 1.304897780000000e-01 5.305977960000000e-01 -4.154464430000000e-01 1.271408960000000e-01
            -4.150319180000000e-01 1.275343470000000e-01 1.304844220000000e-01 5.306106620000000e-01 1.101311180000000e-01 3.343298560000000e-02 1.107886250000000e-01 3.951209790000000e-02
            1.282570730000000e-01 5.327351750000000e-01 -4.154551270000000e-01 1.271421400000000e-01 1.107789040000000e-01 3.950558860000000e-02 1.138178660000000e-01 3.602813930000000e-02
128393661.0000000000 1.290566730000000e-01 8.402739760000000e-03 1.225414490000000e-01 1.272059370000000e-02 -3.739559640000000e-01 2.175929890000000e-01 2.470741770000000e-01 4.876028180000000e-01
            1.225507900000000e-01 1.272428720000000e-02 1.264409640000000e-01 6.603934730000000e-03 2.487553840000000e-01 4.850352250000000e-01 -3.744609390000000e-01 2.172919210000000e-01
            -3.739629020000000e-01 2.175805420000000e-01 2.487501150000000e-01 4.850264970000000e-01 1.215168930000000e-01 1.691870120000000e-02 1.242485580000000e-01 2.249706610000000e-02
            2.470919930000000e-01 4.875967460000000e-01 -3.744591600000000e-01 2.172945690000000e-01 1.242482000000000e-01 2.250131580000000e-02 1.251906010000000e-01 1.948540020000000e-02
128893244.0000000000 1.305367030000000e-01 -1.212649600000000e-02 1.239436020000000e-01 -7.749038200000000e-03 -3.141096090000000e-01 2.968231410000000e-01 3.516743820000000e-01 4.176269520000000e-01
            1.239237180000000e-01 -7.765138590000000e-03 1.279282520000000e-01 -1.389500520000000e-02 3.527253810000000e-01 4.147363760000000e-01 -3.146533460000000e-01 2.966626540000000e-01
            -3.140957540000000e-01 2.968374990000000e-01 3.527078230000000e-01 4.147477750000000e-01 1.241361640000000e-01 -2.778020270000000e-03 1.286554870000000e-01 1.677669770000000e-03
            3.516732950000000e-01 4.176172080000000e-01 -3.146433710000000e-01 2.966720840000000e-01 1.286505880000000e-01 1.698878940000000e-03 1.278092220000000e-01 -2.239163730000000e-04
129392827.0000000000 1.226879320000000e-01 -3.143355240000000e-02 1.158240990000000e-01 -2.670173670000000e-02 -2.373624870000000e-01 3.613840550000000e-01 4.378595610000000e-01 3.267683720000000e-01
            1.158331380000000e-01 -2.669822300000000e-02 1.200843070000000e-01 -3.319201470000000e-02 4.382124750000000e-01 3.237354850000000e-01 -2.379044210000000e-01 3.613552580000000e-01
            -2.373480550000000e-01 3.613753270000000e-01 4.382112910000000e-01 3.237471970000000e-01 1.175028940000000e-01 -2.151408640000000e-02 1.233923630000000e-01 -1.867437440000000e-02
            4.378599220000000e-01 3.267794240000000e-01 -2.379125520000000e-01 3.613444900000000e-01 1.233834370000000e-01 -1.865776650000000e-02 1.211869910000000e-01 -1.898398930000000e-02
129892410.0000000000 1.068577810000000e-01 -4.552520320000000e-02 9.976008590000000e-02 -4.003240300000000e-02 -1.466659870000000e-01 4.070715100000000e-01 5.022141630000000e-01 2.191716190000000e-01
            9.977401070000000e-02 -4.003625660000000e-02 1.042910080000000e-01 -4.727974200000000e-02 5.018669660000000e-01 2.161509570000000e-01 -1.472185200000000e-01 4.071817410000000e-01
            -1.466727470000000e-01 4.070731450000000e-01 5.018559030000000e-01 2.161445350000000e-01 1.029255430000000e-01 -3.529841990000000e-02 1.095813630000000e-01 -3.438520210000000e-02
            5.022073910000000e-01 2.191653560000000e-01 -1.472239620000000e-01 4.071651750000000e-01 1.095807610000000e-01 -3.438253330000000e-02 1.065755160000000e-01 -3.279977270000000e-02
130391993.0000000000 8.604976239999999e-02 -5.124582090000000e-02 7.898786310000000e-02 -4.459516270000000e-02 -4.654763930000000e-02 4.300939360000000e-01 5.417091020000000e-01 9.911580180000000e-02
            7.900043240000000e-02 -4.459237550000000e-02 8.351035010000001e-02 -5.298074120000000e-02 5.406860230000000e-01 9.623262220000001e-02 -4.706837010000000e-02 4.303221280000000e-01
            -4.654458870000000e-02 4.300781640000000e-01 5.406842870000000e-01 9.623038220000001e-02 8.330685559999999e-02 -4.098806000000000e-02 9.013023390000000e-02 -4.205040000000000e-02
            5.417058360000000e-01 9.911319010000000e-02 -4.706110140000000e-02 4.303131860000000e-01 9.013666210000000e-02 -4.206433580000000e-02 8.691231730000000e-02 -3.849338480000000e-02
130891576.0000000000 6.454701550000000e-02 -4.693172880000000e-02 5.799665890000000e-02 -3.889813880000000e-02 5.689834050000000e-02 4.278330660000000e-01 5.535182910000001e-01 -2.849282380000000e-02
            5.800071710000000e-02 -3.890853700000000e-02 6.203686590000000e-02 -4.867468940000000e-02 5.518329180000000e-01 -3.105832670000000e-02 5.647669450000000e-02 4.281907190000000e-01
            5.689322580000000e-02 4.278424810000000e-01 5.518387490000000e-01 -3.105056690000000e-02 6.280725440000000e-02 -3.686121730000000e-02 6.926553380000000e-02 -3.983409780000000e-02
            5.535255850000000e-01 -2.849199760000000e-02 5.646039330000000e-02 4.281816630000000e-01 6.927901170000000e-02 -3.982719400000000e-02 6.638304350000000e-02 -3.434833170000000e-02
131391159.0000000000 4.717755640000000e-02 -3.316750350000000e-02 4.172291080000000e-02 -2.376013730000000e-02 1.565218400000000e-01 3.998271990000000e-01 5.353594160000000e-01 -1.574833920000000e-01
            4.173061420000000e-02 -2.376263250000000e-02 4.466789390000000e-02 -3.492789360000000e-02 5.331334520000000e-01 -1.596060420000000e-01 1.561718690000000e-01 4.002534600000000e-01
            1.565287090000000e-01 3.998179690000000e-01 5.331389110000000e-01 -1.596184660000000e-01 4.624367910000000e-02 -2.338925050000000e-02 5.185332650000000e-02 -2.797241940000000e-02
            5.353651070000000e-01 -1.574799820000000e-01 1.561784620000000e-01 4.002521970000000e-01 5.183967720000000e-02 -2.797269540000000e-02 4.978249120000000e-02 -2.084211780000000e-02
131890742.0000000000 3.806482340000000e-02 -1.285654860000000e-02 3.434155420000000e-02 -2.371347980000000e-03 2.451668520000000e-01 3.481795900000000e-01 4.863910420000000e-01 -2.804756680000000e-01
            3.431735230000000e-02 -2.365380490000000e-03 3.556426850000000e-02 -1.467390090000000e-02 4.837130660000000e-01 -2.820060250000000e-01 2.449319910000000e-01 3.486772000000000e-01
            2.451571410000000e-01 3.481817700000000e-01 4.837069480000000e-01 -2.820088170000000e-01 3.772289400000000e-02 -3.386362630000000e-03 4.215949310000000e-02 -9.206125310000000e-03
            4.863998020000000e-01 -2.804702280000000e-01 2.449351560000000e-01 3.486704210000000e-01 4.215953060000000e-02 -9.207807050000001e-03 4.125314720000000e-02 -8.028558120000000e-04
132390325.0000000000 3.943770060000000e-02 9.217105530000000e-03 3.788511800000000e-02 2.023831860000000e-02 3.170252340000000e-01 2.774677130000000e-01 4.080842650000000e-01 -3.891578070000000e-01
            3.787982790000000e-02 2.023899970000000e-02 3.694841560000000e-02 7.397081590000000e-03 4.051083120000000e-01 -3.900228870000000e-01 3.169175330000000e-01 2.779818560000000e-01
            3.170294460000000e-01 2.774727590000000e-01 4.051156230000000e-01 -3.900276710000000e-01 3.955189570000000e-02 1.851226790000000e-02 4.261616630000000e-02 1.184526380000000e-02
            4.080816260000000e-01 -3.891531910000000e-01 3.169185690000000e-01 2.779973090000000e-01 4.261805220000000e-02 1.185638230000000e-02 4.308568650000000e-02 2.114364480000000e-02
132889908.0000000000 5.080724130000000e-02 2.783762170000000e-02 5.164538910000000e-02 3.862576660000000e-02 3.685605060000000e-01 1.935563890000000e-01 3.048721820000000e-01 -4.757213280000000e-01
            5.163950400000000e-02 3.862071690000000e-02 4.831773780000000e-02 2.598499360000000e-02 3.017777800000000e-01 -4.758584030000000e-01 3.685860000000000e-01 1.940748760000000e-01
            3.685726540000000e-01 1.935475090000000e-01 3.017722330000000e-01 -4.758621760000000e-01 5.134897440000000e-02 3.708902880000000e-02 5.301738490000000e-02 3.001644250000000e-02
            3.048631110000000e-01 -4.757083850000000e-01 3.685886950000000e-01 1.940883190000000e-01 5.302819820000000e-02 3.002805080000000e-02 5.489446170000000e-02 3.975796240000000e-02
133389491.0000000000 6.916273880000000e-02 3.878648540000000e-02 7.229328130000000e-02 4.851719400000000e-02 3.985575830000000e-01 1.023381030000000e-01 1.837202210000000e-01 -5.341484170000000e-01
            7.229828580000000e-02 4.851389260000000e-02 6.667697430000000e-02 3.694450410000000e-02 1.807051350000000e-01 -5.335709060000000e-01 3.987097050000000e-01 1.028415810000000e-01
            3.985535980000000e-01 1.023246480000000e-01 1.806946100000000e-01 -5.335617040000000e-01 7.022722160000000e-02 4.811494540000000e-02 7.059825400000000e-02 4.101420470000000e-02
            1.837152130000000e-01 -5.341618610000000e-01 3.986995280000000e-01 1.028491380000000e-01 7.060298590000000e-02 4.100626730000000e-02 7.379733660000000e-02 5.079102830000000e-02
133889074.0000000000 9.006700350000001e-02 3.996892860000000e-02 9.498802839999999e-02 4.788877980000000e-02 4.073846250000000e-01 8.828466930000001e-03 5.299519310000000e-02 -5.612226240000000e-01
            9.499291440000000e-02 4.788387980000000e-02 8.752576880000000e-02 3.811004340000000e-02 5.019242350000000e-02 -5.599515320000000e-01 4.076269710000000e-01 9.299756930000000e-03
            4.073715960000000e-01 8.833535159999999e-03 5.020447780000000e-02 -5.599592170000000e-01 9.176751390000000e-02 4.936691160000000e-02 9.100809830000001e-02 4.250181250000000e-02
            5.297651540000000e-02 -5.612232940000000e-01 4.076357520000000e-01 9.299464080000000e-03 9.099441140000000e-02 4.252023660000000e-02 9.536244469999999e-02 5.204148580000000e-02
134388657.0000000000 1.087706850000000e-01 3.161834370000000e-02 1.147913700000000e-01 3.718204680000000e-02 3.960079310000000e-01 -8.296037190000000e-02 -7.897422110000001e-02 -5.565372520000000e-01
            1.147809330000000e-01 3.718264050000000e-02 1.062246280000000e-01 2.976395070000000e-02 -8.135548770000001e-02 -5.546640170000000e-01 3.963442780000000e-01 -8.259007320000000e-02
            3.960117720000000e-01 -8.297758810000000e-02 -8.136178060000000e-02 -5.546538500000000e-01 1.112632960000000e-01 4.098895710000000e-02 1.096290200000000e-01 3.457889310000000e-02
            -7.897396449999999e-02 -5.565541140000000e-01 3.963436540000000e-01 -8.257580940000001e-02 1.096122370000000e-01 3.459232980000000e-02 1.148988910000000e-01 4.365818690000000e-02
134888240.0000000000 1.214602770000000e-01 1.591979930000000e-02 1.276322030000000e-01 1.891391160000000e-02 3.655005990000000e-01 -1.697278870000000e-01 -2.047148750000000e-01 -5.218858730000000e-01
            1.276307240000000e-01 1.892210900000000e-02 1.188914260000000e-01 1.407655140000000e-02 -2.066096830000000e-01 -5.195317450000000e-01 3.659078450000000e-01 -1.694391920000000e-01
            3.654935520000000e-01 -1.697343260000000e-01 -2.066096080000000e-01 -5.195379200000000e-01 1.248052520000000e-01 2.511493470000000e-02 1.225146080000000e-01 1.925298770000000e-02
            -2.047271520000000e-01 -5.218882830000000e-01 3.659020640000000e-01 -1.694267850000000e-01 1.225319150000000e-01 1.924894660000000e-02 1.284415500000000e-01 2.777754370000000e-02
135387823.0000000000 1.256949950000000e-01 -3.651603940000000e-03 1.310832610000000e-01 -3.034867830000000e-03 3.168432830000000e-01 -2.481258980000000e-01 -3.182775380000000e-01 -4.604342870000000e-01
            1.310752310000000e-01 -3.044757970000000e-03 1.231376810000000e-01 -5.483307300000000e-03 -3.195666010000000e-01 -4.577040930000000e-01 3.173138100000000e-01 -2.479364170000000e-01
            3.168319400000000e-01 -2.481215130000000e-01 -3.195723800000000e-01 -4.576957690000000e-01 1.299163290000000e-01 5.178951240000000e-03 1.272145250000000e-01 -1.434010610000000e-04
            -3.183002080000000e-01 -4.604271390000000e-01 3.173015890000000e-01 -2.479309800000000e-01 1.272279100000000e-01 -1.376611110000000e-04 1.335506660000000e-01 7.807779790000000e-03
135887406.0000000000 1.207088260000000e-01 -2.309825850000000e-02 1.244866690000000e-01 -2.431922510000000e-02 2.513823140000000e-01 -3.144579370000000e-01 -4.149097460000000e-01 -3.758872790000000e-01
            1.245000480000000e-01 -2.432669870000000e-02 1.181681820000000e-01 -2.489733120000000e-02 -4.155372570000000e-01 -3.729404340000000e-01 2.518915860000000e-01 -3.143876440000000e-01
            2.514029440000000e-01 -3.144506940000000e-01 -4.155323130000000e-01 -3.729456540000000e-01 1.256933200000000e-01 -1.481413040000000e-02 1.228079490000000e-01 -1.962762600000000e-02
            -4.149064140000000e-01 -3.758756940000000e-01 2.518855250000000e-01 -3.143782050000000e-01 1.228198840000000e-01 -1.964016290000000e-02 1.293309740000000e-01 -1.219633660000000e-02
136386989.0000000000 1.074190380000000e-01 -3.837740610000000e-02 1.090755280000000e-01 -4.061635660000000e-02 1.714264470000000e-01 -3.646810430000000e-01 -4.907381010000000e-01 -2.722122250000000e-01
            1.090662510000000e-01 -4.061129780000000e-02 1.048884770000000e-01 -4.017045150000000e-02 -4.906759190000000e-01 -2.692278090000000e-01 1.719283330000000e-01 -3.647214590000000e-01
            1.714266780000000e-01 -3.646842740000000e-01 -4.906814050000000e-01 -2.692212300000000e-01 1.130604720000000e-01 -3.078444570000000e-02 1.101145770000000e-01 -3.523506460000000e-02
            -4.907281570000000e-01 -2.722268920000000e-01 1.719278580000000e-01 -3.647281680000000e-01 1.101131940000000e-01 -3.523731840000000e-02 1.166691150000000e-01 -2.819634300000000e-02
136886572.0000000000 8.839798400000000e-02 -4.614070690000000e-02 8.775459989999999e-02 -4.841859490000000e-02 8.067489540000000e-02 -3.948476580000000e-01 -5.423272840000000e-01 -1.536441470000000e-01
            8.775733080000001e-02 -4.841904220000000e-02 8.590062780000000e-02 -4.792866340000000e-02 -5.415923940000000e-01 -1.507361130000000e-01 8.114783070000001e-02 -3.949965610000000e-01
            8.067034460000000e-02 -3.948352540000000e-01 -5.415863890000000e-01 -1.507373070000000e-01 9.453868629999999e-02 -3.935756680000000e-02 9.157898400000000e-02 -4.359202970000000e-02
            -5.423051740000000e-01 -1.536486350000000e-01 8.116283019999999e-02 -3.950016070000000e-01 9.156449090000000e-02 -4.358202540000000e-02 9.810039110000000e-02 -3.677582000000000e-02
137386155.0000000000 6.758027540000000e-02 -4.440220690000000e-02 6.490375830000000e-02 -4.573684800000000e-02 -1.555188420000000e-02 -4.018920460000000e-01 -5.664690610000001e-01 -2.496872480000000e-02
            6.491544750000000e-02 -4.571997520000000e-02 6.510058530000000e-02 -4.618998030000000e-02 -5.650792270000000e-01 -2.228648260000000e-02 -1.510856730000000e-02 -4.021671270000000e-01
            -1.555457600000000e-02 -4.019026660000000e-01 -5.650759590000000e-01 -2.231227680000000e-02 7.397532649999999e-02 -3.847718910000000e-02 7.103110629999999e-02 -4.257699680000000e-02
            -5.664621180000000e-01 -2.496752560000000e-02 -1.511004500000000e-02 -4.021517720000000e-01 7.103570010000000e-02 -4.258690250000000e-02 7.752992290000001e-02 -3.587364030000000e-02
137885738.0000000000 4.964712550000000e-02 -3.310227160000000e-02 4.559126740000000e-02 -3.272752450000000e-02 -1.106156090000000e-01 -3.846153960000000e-01 -5.604149200000000e-01 1.078954400000000e-01
            4.559045010000000e-02 -3.273376800000000e-02 4.720203260000000e-02 -3.492424000000000e-02 -5.584294510000000e-01 1.101716770000000e-01 -1.102567250000000e-01 -3.849778480000000e-01
            -1.105938020000000e-01 -3.846085210000000e-01 -5.584330360000000e-01 1.101621420000000e-01 5.608773510000000e-02 -2.802134460000000e-02 5.309680770000000e-02 -3.213181270000000e-02
            -5.604067200000000e-01 1.078852630000000e-01 -1.102568680000000e-01 -3.849781390000000e-01 5.311895490000000e-02 -3.213998980000000e-02 5.958524820000000e-02 -2.540336400000000e-02
138385321.0000000000 3.893356300000000e-02 -1.461677810000000e-02 3.434939660000000e-02 -1.212365360000000e-02 -1.975698400000000e-01 -3.442682100000000e-01 -5.226399750000000e-01 2.375674950000000e-01
            3.433574990000000e-02 -1.210725290000000e-02 3.649545730000000e-02 -1.647328020000000e-02 -5.201750070000000e-01 2.393399920000000e-01 -1.973138530000000e-01 -3.446861040000000e-01
            -1.975673460000000e-01 -3.442674750000000e-01 -5.201799420000000e-01 2.393353000000000e-01 4.517204410000000e-02 -1.025332590000000e-02 4.208576800000000e-02 -1.443820530000000e-02
            -5.226287790000000e-01 2.375833300000000e-01 -1.973270500000000e-01 -3.446938340000000e-01 4.206252540000000e-02 -1.444627230000000e-02 4.865108030000000e-02 -7.604378930000000e-03
138884904.0000000000 3.810340850000000e-02 6.707269250000000e-03 3.397337490000000e-02 1.141866580000000e-02 -2.705212070000000e-01 -2.845229810000000e-01 -4.538173910000000e-01 3.557217130000000e-01
            3.396681540000000e-02 1.140131190000000e-02 3.567117650000000e-02 4.846381450000000e-03 -4.510087350000000e-01 3.568433510000000e-01 -2.703855650000000e-01 -2.849879470000000e-01
            -2.705111150000000e-01 -2.845281270000000e-01 -4.510074330000000e-01 3.568517000000000e-01 4.398776310000000e-02 1.061128470000000e-02 4.067063840000000e-02 6.316314140000000e-03
            -4.538218230000000e-01 3.557165060000000e-01 -2.703710690000000e-01 -2.849960910000000e-01 4.066606880000000e-02 6.317827530000000e-03 4.745584300000000e-02 1.329650470000000e-02
139384487.0000000000 4.729471200000000e-02 2.580320260000000e-02 4.453277130000000e-02 3.228799580000000e-02 -3.254943020000000e-01 -2.106705630000000e-01 -3.575275090000000e-01 4.540217060000000e-01
            4.451964060000000e-02 3.227514080000000e-02 4.485591660000000e-02 2.392394710000000e-02 -3.545428620000000e-01 4.544418750000000e-01 -3.254675310000000e-01 -2.111563980000000e-01
            -3.254780410000000e-01 -2.106723730000000e-01 -3.545503290000000e-01 4.544439130000000e-01 5.281159490000000e-02 2.949087640000000e-02 4.915028650000000e-02 2.510979820000000e-02
            -3.575366900000000e-01 4.540201520000000e-01 -3.254509710000000e-01 -2.111411990000000e-01 4.915502910000000e-02 2.510569970000000e-02 5.629047930000000e-02 3.220766180000000e-02
139884070.0000000000 6.406321869999999e-02 3.816128940000000e-02 6.328671730000000e-02 4.574592120000000e-02 -3.607844610000000e-01 -1.282707060000000e-01 -2.401252580000000e-01 5.256372940000000e-01
            6.331387980000000e-02 4.573762850000000e-02 6.160653150000000e-02 3.625128110000000e-02 -2.371189580000000e-01 5.253658030000000e-01 -3.608739020000000e-01 -1.287242950000000e-01
            -3.607951400000000e-01 -1.282639080000000e-01 -2.371248130000000e-01 5.253528900000000e-01 6.935769109999999e-02 4.188995720000000e-02 6.523429500000000e-02 3.750635630000000e-02
            -2.401152090000000e-01 5.256536400000000e-01 -3.608689470000000e-01 -1.287149780000000e-01 6.523573820000000e-02 3.749850010000000e-02 7.285830240000001e-02 4.462879540000000e-02
140383653.0000000000 8.423106630000000e-02 4.124791450000000e-02 8.577756230000000e-02 4.903775350000000e-02 -3.764321100000000e-01 -4.217363930000000e-02 -1.096571180000000e-01 5.663669230000000e-01
            8.576831960000000e-02 4.905601630000000e-02 8.175005640000001e-02 3.933061140000000e-02 -1.068361130000000e-01 5.654002670000000e-01 -3.766138630000000e-01 -4.258263500000000e-02
            -3.764246830000000e-01 -4.218000110000000e-02 -1.068169520000000e-01 5.653991310000001e-01 8.952190530000000e-02 4.513673520000000e-02 8.487245600000000e-02 4.086989130000000e-02
            -1.096607300000000e-01 5.663834050000000e-01 -3.766204020000000e-01 -4.258237190000000e-02 8.486922560000000e-02 4.086388660000000e-02 9.305448700000001e-02 4.789045530000000e-02
140883236.0000000000 1.031399220000000e-01 3.483334850000000e-02 1.068984870000000e-01 4.192281370000000e-02 -3.731689340000000e-01 4.376866030000000e-02 2.535152060000000e-02 5.747993710000000e-01
            1.068814310000000e-01 4.193331370000000e-02 1.006437820000000e-01 3.293915680000000e-02 2.788529340000000e-02 5.731853720000000e-01 -3.734306630000000e-01 4.339983820000000e-02
            -3.731659590000000e-01 4.376114570000000e-02 2.786079820000000e-02 5.731925390000000e-01 1.087041950000000e-01 3.887444250000000e-02 1.034968220000000e-01 3.487966250000000e-02
            2.535485710000000e-02 5.748022730000000e-01 -3.734422510000000e-01 4.341684220000000e-02 1.035192440000000e-01 3.488666470000000e-02 1.122767490000000e-01 4.159794340000000e-02
141382819.0000000000 1.167885520000000e-01 2.074995180000000e-02 1.222875140000000e-01 2.634805160000000e-02 -3.518483150000000e-01 1.264089040000000e-01 1.571250320000000e-01 5.519272490000000e-01
            1.222797930000000e-01 2.633919090000000e-02 1.143023350000000e-01 1.884982670000000e-02 1.591893950000000e-01 5.497871680000000e-01 -3.521925190000000e-01 1.261226650000000e-01
            -3.518543720000000e-01 1.264050380000000e-01 1.591980770000000e-01 5.497921640000000e-01 1.228325480000000e-01 2.473425800000000e-02 1.171345380000000e-01 2.126632100000000e-02
            1.571246120000000e-01 5.519170520000000e-01 -3.522025150000000e-01 1.261085670000000e-01 1.171146210000000e-01 2.125011270000000e-02 1.264120360000000e-01 2.747075030000000e-02
141882402.0000000000 1.225021440000000e-01 2.218549970000000e-03 1.289975050000000e-01 5.807008000000000e-03 -3.132276600000000e-01 2.026656690000000e-01 2.790760490000000e-01 5.003233310000000e-01
            1.290043510000000e-01 5.797024730000000e-03 1.199915840000000e-01 3.245611130000000e-04 2.805819500000000e-01 4.977912490000000e-01 -3.136352010000000e-01 2.024702060000000e-01
            -3.132401850000000e-01 2.026699010000000e-01 2.805918670000000e-01 4.977778480000000e-01 1.290939190000000e-01 5.870714020000000e-03 1.230164970000000e-01 3.071670450000000e-03
            2.790711140000000e-01 5.003206280000000e-01 -3.136452760000000e-01 2.024714610000000e-01 1.230163190000000e-01 3.064869450000000e-03 1.326769220000000e-01 8.593602140000000e-03
142381985.0000000000 1.192069570000000e-01 -1.687672800000000e-02 1.258613310000000e-01 -1.541123740000000e-02 -2.582592290000000e-01 2.691789110000000e-01 3.859144100000000e-01 4.234010020000000e-01
            1.258697380000000e-01 -1.540467200000000e-02 1.167097800000000e-01 -1.875635040000000e-02 3.867964890000000e-01 4.206108350000000e-01 -2.586898680000000e-01 2.690640250000000e-01
            -2.582611070000000e-01 2.691790690000000e-01 3.868024790000000e-01 4.205838840000000e-01 1.262983590000000e-01 -1.379326970000000e-02 1.200382730000000e-01 -1.580036450000000e-02
            3.859260780000000e-01 4.233971710000000e-01 -2.586909170000000e-01 2.690664440000000e-01 1.200431250000000e-01 -1.580359020000000e-02 1.298754890000000e-01 -1.109473370000000e-02
142881568.0000000000 1.075341300000000e-01 -3.249123960000000e-02 1.135341960000000e-01 -3.293754170000000e-02 -1.886333420000000e-01 3.220379120000000e-01 4.732119270000000e-01 3.249180860000000e-01
            1.135525780000000e-01 -3.293316100000000e-02 1.050484270000000e-01 -3.436225690000000e-02 4.734354270000000e-01 3.219761120000000e-01 -1.890795340000000e-01 3.220369290000000e-01
            -1.886513840000000e-01 3.220275900000000e-01 4.734349720000000e-01 3.219927650000000e-01 1.149386150000000e-01 -3.024966780000000e-02 1.087328380000000e-01 -3.138962320000000e-02
            4.732238390000000e-01 3.249193690000000e-01 -1.890971380000000e-01 3.220407540000000e-01 1.087338320000000e-01 -3.138884380000000e-02 1.184834360000000e-01 -2.759979110000000e-02
143381151.0000000000 8.976409589999999e-02 -4.121462400000000e-02 9.452991299999999e-02 -4.301867630000000e-02 -1.074081830000000e-01 3.573423970000000e-01 5.370768220000000e-01 2.089375570000000e-01
            9.453693060000000e-02 -4.300835220000000e-02 8.729880790000000e-02 -4.308268090000000e-02 5.366231080000000e-01 2.060414840000000e-01 -1.078438810000000e-01 3.574314770000000e-01
            -1.074029430000000e-01 3.573346220000000e-01 5.366148600000000e-01 2.060380610000000e-01 9.717811220000000e-02 -3.994838500000000e-02 9.133378050000000e-02 -4.022199000000000e-02
            5.370665880000000e-01 2.089251610000000e-01 -1.078584630000000e-01 3.574388580000000e-01 9.131729380000000e-02 -4.021972640000000e-02 1.007053260000000e-01 -3.728465870000000e-02
143880734.0000000000 6.956940809999999e-02 -4.078490330000000e-02 7.282511899999999e-02 -4.321585010000000e-02 -1.921307120000000e-02 3.717590080000000e-01 5.738109760000000e-01 8.017430550000000e-02
            7.281513689999999e-02 -4.321738760000000e-02 6.713239990000000e-02 -4.265942630000000e-02 5.727045940000000e-01 7.746039709999999e-02 -1.961057760000000e-02 3.719620060000000e-01
            -1.921906710000000e-02 3.717651000000000e-01 5.727176349999999e-01 7.744946380000001e-02 7.664026450000000e-02 -4.050618900000000e-02 7.141579090000000e-02 -4.005663950000000e-02
            5.738158790000000e-01 8.019430680000000e-02 -1.961132650000000e-02 3.719553960000000e-01 7.141285360000001e-02 -4.006111760000000e-02 8.012164190000000e-02 -3.784788790000000e-02
144380317.0000000000 5.154384420000000e-02 -3.085514290000000e-02 5.332388090000000e-02 -3.319108420000000e-02 6.993359320000000e-02 3.635740890000000e-01 5.802022440000000e-01 -5.552822860000000e-02
            5.331917690000000e-02 -3.317032870000000e-02 4.911806720000000e-02 -3.272371400000000e-02 5.785064100000000e-01 -5.791530270000000e-02 6.959098000000000e-02 3.638613580000000e-01
            6.993455240000000e-02 3.635847150000000e-01 5.784947270000000e-01 -5.791214300000000e-02 5.786609660000000e-02 -3.141192750000000e-02 5.351182400000000e-02 -3.045267860000000e-02
            5.802110600000000e-01 -5.551563670000000e-02 6.957978710000000e-02 3.638635300000000e-01 5.350027340000000e-02 -3.045314970000000e-02 6.133519420000000e-02 -2.874483030000000e-02
144879900.0000000000 4.001945830000000e-02 -1.335663560000000e-02 4.074882820000000e-02 -1.495231530000000e-02 1.534540320000000e-01 3.333670300000000e-01 5.541090510000000e-01 -1.908897320000000e-01
            4.076773330000000e-02 -1.497182360000000e-02 3.761802640000000e-02 -1.524440050000000e-02 5.518850090000000e-01 -1.928390620000000e-01 1.531948260000000e-01 3.337112080000000e-01
            1.534442250000000e-01 3.333490910000000e-01 5.518754430000000e-01 -1.928331710000000e-01 4.533234890000000e-02 -1.445896300000000e-02 4.198678030000000e-02 -1.328665060000000e-02
            5.541043320000000e-01 -1.908854470000000e-01 1.532036880000000e-01 3.337174460000000e-01 4.197677350000000e-02 -1.330301360000000e-02 4.874932700000000e-02 -1.175510180000000e-02
145379483.0000000000 3.803079280000000e-02 7.716958700000000e-03 3.833478570000000e-02 7.164549530000000e-03 2.254751790000000e-01 2.840608030000000e-01 4.954656620000000e-01 -3.174599750000000e-01
            3.831934690000000e-02 7.145214650000000e-03 3.566089260000000e-02 5.799931290000000e-03 4.928562780000000e-01 -3.187952370000000e-01 2.253185360000000e-01 2.844537090000000e-01
            2.254743710000000e-01 2.840608940000000e-01 4.928368270000000e-01 -3.188315210000000e-01 4.212602480000000e-02 6.510695540000000e-03 3.987327060000000e-02 7.514695430000000e-03
            4.954525010000000e-01 -3.174607030000000e-01 2.253124890000000e-01 2.844506820000000e-01 3.985409180000000e-02 7.532754170000000e-03 4.552680540000000e-02 9.252801900000000e-03
145879066.0000000000 4.616420730000000e-02 2.729274650000000e-02 4.669109150000000e-02 2.777531080000000e-02 2.818676270000000e-01 2.203551950000000e-01 4.071033360000000e-01 -4.265008160000000e-01
            4.668781590000000e-02 2.778564170000000e-02 4.376180160000000e-02 2.535539860000000e-02 4.042272730000000e-01 -4.271871270000000e-01 2.818113770000000e-01 2.207599080000000e-01
            2.818739880000000e-01 2.203324540000000e-01 4.042241290000000e-01 -4.272023280000000e-01 4.905335870000000e-02 2.651358600000000e-02 4.781218470000000e-02 2.700940480000000e-02
            4.071093600000000e-01 -4.264996580000000e-01 2.818110610000000e-01 2.207497530000000e-01 4.780921370000000e-02 2.700409020000000e-02 5.248475890000000e-02 2.928470520000000e-02
146378649.0000000000 6.236108810000000e-02 4.080966280000000e-02 6.370677040000000e-02 4.198450000000000e-02 3.206974710000000e-01 1.473363750000000e-01 2.947420660000000e-01 -5.105078060000000e-01
            6.371135770000000e-02 4.197670110000000e-02 5.994806380000000e-02 3.884662210000000e-02 2.917986020000000e-01 -5.105001710000000e-01 3.207249640000000e-01 1.477451080000000e-01
            3.206852110000000e-01 1.473448280000000e-01 2.917986610000000e-01 -5.105023370000000e-01 6.431585360000000e-02 4.086844130000000e-02 6.387041590000000e-02 4.052724610000000e-02
            2.947308420000000e-01 -5.105121050000000e-01 3.207158970000000e-01 1.477439760000000e-01 6.387561120000000e-02 4.053056430000000e-02 6.775678770000000e-02 4.366995850000000e-02
146878232.0000000000 8.269952220000000e-02 4.529988270000000e-02 8.524024080000001e-02 4.659877100000000e-02 3.416836240000000e-01 6.963218540000000e-02 1.661395230000000e-01 -5.643563490000000e-01
            8.523759220000000e-02 4.658872480000000e-02 8.026082860000000e-02 4.332435340000000e-02 1.632969570000000e-01 -5.636794020000000e-01 3.418072240000000e-01 7.002399560000000e-02
            3.416963320000000e-01 6.963945750000000e-02 1.632991130000000e-01 -5.636870349999999e-01 8.414718110000000e-02 4.655217180000000e-02 8.421371610000000e-02 4.512531740000000e-02
            1.661483750000000e-01 -5.643764590000000e-01 3.418040750000000e-01 7.001731920000000e-02 8.420919370000000e-02 4.512025500000000e-02 8.760611290000000e-02 4.937229730000000e-02
147377815.0000000000 1.025382370000000e-01 4.014844870000000e-02 1.063147600000000e-01 4.087030460000000e-02 3.454433420000000e-01 -9.202279149999999e-03 2.981707570000000e-02 -5.858278490000000e-01
            1.063254490000000e-01 4.086276720000000e-02 1.000936740000000e-01 3.817371520000000e-02 2.723863940000000e-02 -5.844999310000000e-01 3.456443070000000e-01 -8.851295230000000e-03
            3.454394690000000e-01 -9.197491570000001e-03 2.725617170000000e-02 -5.844973400000000e-01 1.040114010000000e-01 4.270509070000000e-02 1.042000950000000e-01 4.004005320000000e-02
            2.981930190000000e-02 -5.858221850000001e-01 3.456530770000000e-01 -8.846750160000000e-03 1.042135930000000e-01 4.004163240000000e-02 1.075005990000000e-01 4.551881730000000e-02
147877398.0000000000 1.177251820000000e-01 2.686899130000000e-02 1.224432510000000e-01 2.632874040000000e-02 3.326151470000000e-01 -8.632875630000000e-02 -1.061523840000000e-01 -5.751426770000000e-01
            1.224510040000000e-01 2.632349890000000e-02 1.152815170000000e-01 2.491349350000000e-02 -1.083375720000000e-01 -5.732412900000000e-01 3.328790190000000e-01 -8.602104419999999e-02
            3.326314020000000e-01 -8.631266429999999e-02 -1.083329810000000e-01 -5.732677990000000e-01 1.197573550000000e-01 3.060731810000000e-02 1.196996940000000e-01 2.672448770000000e-02
            -1.061464050000000e-01 -5.751498320000000e-01 3.328766420000000e-01 -8.602537490000001e-02 1.196929680000000e-01 2.670437790000000e-02 1.232668060000000e-01 3.340897760000000e-02
148376981.0000000000 1.253607440000000e-01 8.440854290000001e-03 1.303832520000000e-01 6.163871140000000e-03 3.036655730000000e-01 -1.590544190000000e-01 -2.347909820000000e-01 -5.343089720000000e-01
            1.303757170000000e-01 6.180582500000000e-03 1.228874170000000e-01 6.502080240000000e-03 -2.364814060000000e-01 -5.319913840000000e-01 3.040180540000000e-01 -1.588346460000000e-01
            3.036729440000000e-01 -1.590425350000000e-01 -2.365042230000000e-01 -5.319975390000000e-01 1.283180460000000e-01 1.303374630000000e-02 1.276402800000000e-01 8.053725170000000e-03
            -2.347890670000000e-01 -5.342976600000000e-01 3.040144500000000e-01 -1.588306940000000e-01 1.276543980000000e-01 8.065622519999999e-03 1.318261430000000e-01 1.582254500000000e-02
148876564.0000000000 1.240288340000000e-01 -1.132450440000000e-02 1.285847360000000e-01 -1.548642230000000e-02 2.591381430000000e-01 -2.243402140000000e-01 -3.503862380000000e-01 -4.663695470000000e-01
            1.285830480000000e-01 -1.547955360000000e-02 1.215810530000000e-01 -1.324551700000000e-02 -3.514978190000000e-01 -4.637390210000000e-01 2.595124880000000e-01 -2.242186180000000e-01
            2.591356070000000e-01 -2.243530480000000e-01 -3.515148530000000e-01 -4.637307540000000e-01 1.281687840000000e-01 -6.304527960000000e-03 1.265793160000000e-01 -1.212930720000000e-02
            -3.503908040000000e-01 -4.663722460000000e-01 2.595160050000000e-01 -2.242098230000000e-01 1.265761860000000e-01 -1.213643840000000e-02 1.316764040000000e-01 -3.539649080000000e-03
149376147.0000000000 1.140501620000000e-01 -2.843544530000000e-02 1.173050910000000e-01 -3.426723590000000e-02 2.001178590000000e-01 -2.786295580000000e-01 -4.480857720000000e-01 -3.748030080000000e-01
            1.172990270000000e-01 -3.427159960000000e-02 1.116040940000000e-01 -3.034986170000000e-02 -4.485723440000000e-01 -3.720010630000000e-01 2.005078750000000e-01 -2.785912320000000e-01
            2.001151990000000e-01 -2.786197370000000e-01 -4.485689100000000e-01 -3.719954130000000e-01 1.193924520000000e-01 -2.348375150000000e-02 1.167318200000000e-01 -2.983213030000000e-02
            -4.480858070000000e-01 -3.748044300000000e-01 2.005140830000000e-01 -2.785854340000000e-01 1.167217320000000e-01 -2.983377290000000e-02 1.228901000000000e-01 -2.072738470000000e-02
149875730.0000000000 9.737137760000000e-02 -3.932968220000000e-02 9.860651140000000e-02 -4.621680090000000e-02 1.288902360000000e-01 -3.179874320000000e-01 -5.236335740000000e-01 -2.634759570000000e-01
            9.862215970000000e-02 -4.621449700000000e-02 9.493482400000000e-02 -4.122891290000000e-02 -5.234588800000000e-01 -2.606461600000000e-01 1.292800960000000e-01 -3.180330590000000e-01
            1.288826430000000e-01 -3.179823250000000e-01 -5.234720309999999e-01 -2.606374290000000e-01 1.037449650000000e-01 -3.485222020000000e-02 9.991330740000000e-02 -4.139524680000000e-02
            -5.236349250000000e-01 -2.634840840000000e-01 1.292845440000000e-01 -3.180363540000000e-01 9.991416910000001e-02 -4.139679450000000e-02 1.072055950000000e-01 -3.212679980000000e-02
150375313.0000000000 7.734582819999999e-02 -4.143114700000000e-02 7.622435320000000e-02 -4.854780390000000e-02 4.929195350000000e-02 -3.388983120000000e-01 -5.730242530000000e-01 -1.368303520000000e-01
            7.622813730000000e-02 -4.853606510000000e-02 7.494147790000000e-02 -4.334462920000000e-02 -5.722023910000000e-01 -1.340853900000000e-01 4.966173240000000e-02 -3.390199340000000e-01
            4.929752880000000e-02 -3.388789690000000e-01 -5.721959860000000e-01 -1.340962720000000e-01 8.440625140000001e-02 -3.778557210000000e-02 7.949161410000000e-02 -4.418929740000000e-02
            -5.729920090000000e-01 -1.368307170000000e-01 4.966739020000000e-02 -3.390406790000000e-01 7.949446800000000e-02 -4.418973940000000e-02 8.785448810000000e-02 -3.505856670000000e-02
150874896.0000000000 5.841369460000000e-02 -3.394807610000000e-02 5.492073420000000e-02 -4.032818360000000e-02 -3.327850150000000e-02 -3.390870110000000e-01 -5.925083640000000e-01 -3.710754250000000e-04
            5.494165000000000e-02 -4.033407560000000e-02 5.602038200000000e-02 -3.586661030000000e-02 -5.910697700000000e-01 2.117986830000000e-03 -3.296612800000000e-02 -3.392984460000000e-01
            -3.328883940000000e-02 -3.390665940000000e-01 -5.910670670000000e-01 2.112945060000000e-03 6.570900330000000e-02 -3.130812960000000e-02 5.985402720000000e-02 -3.727634540000000e-02
            -5.924973950000000e-01 -3.646372600000000e-04 -3.297533000000000e-02 -3.393023380000000e-01 5.986043910000000e-02 -3.727839920000000e-02 6.911244730000000e-02 -2.855990990000000e-02
151374479.0000000000 4.503572220000000e-02 -1.831629390000000e-02 3.967008200000000e-02 -2.304567270000000e-02 -1.126809020000000e-01 -3.183399530000000e-01 -5.793111640000000e-01 1.388901680000000e-01
            3.967147140000000e-02 -2.303513450000000e-02 4.267501700000000e-02 -2.024817640000000e-02 -5.773325180000000e-01 1.409694920000000e-01 -1.124419870000000e-01 -3.186331740000000e-01
            -1.127127430000000e-01 -3.183473280000000e-01 -5.773512130000000e-01 1.409681650000000e-01 5.208900260000000e-02 -1.656676390000000e-02 4.556824300000000e-02 -2.195412130000000e-02
            -5.793174270000000e-01 1.388982630000000e-01 -1.124382920000000e-01 -3.186253380000000e-01 4.557033280000000e-02 -2.198034290000000e-02 5.544593220000000e-02 -1.377978370000000e-02
151874062.0000000000 4.066186540000000e-02 1.904770240000000e-03 3.415064110000000e-02 -5.271242870000000e-04 -1.830630620000000e-01 -2.788674070000000e-01 -5.325548760000000e-01 2.725328030000000e-01
            3.416013980000000e-02 -5.232201950000000e-04 3.830527660000000e-02 -4.506135820000000e-05 -5.301310730000000e-01 2.740831380000000e-01 -1.828886480000000e-01 -2.791854880000000e-01
            -1.830481060000000e-01 -2.788493460000000e-01 -5.301443100000000e-01 2.740882950000000e-01 4.700772690000000e-02 3.075648180000000e-03 4.004566230000000e-02 -1.692035400000000e-03
            -5.325388650000000e-01 2.725358230000000e-01 -1.828833020000000e-01 -2.791787310000000e-01 4.006208770000000e-02 -1.675452620000000e-03 5.037295150000000e-02 5.882848930000000e-03
152373645.0000000000 4.642838330000000e-02 2.177912320000000e-02 3.978509810000000e-02 2.189772000000000e-02 -2.399954800000000e-01 -2.246741620000000e-01 -4.540180050000000e-01 3.915593240000000e-01
            3.977892900000000e-02 2.190163610000000e-02 4.405914280000000e-02 1.979226920000000e-02 -4.513271290000000e-01 3.924933220000000e-01 -2.399092390000000e-01 -2.250372260000000e-01
            -2.400136960000000e-01 -2.246752140000000e-01 -4.513145610000000e-01 3.925047980000000e-01 5.183989170000000e-02 2.289964440000000e-02 4.469615200000000e-02 1.872877290000000e-02
            -4.540227610000000e-01 3.915517680000000e-01 -2.399107290000000e-01 -2.250374400000000e-01 4.471544930000000e-02 1.872452100000000e-02 5.521641620000000e-02 2.571798290000000e-02
152873228.0000000000 6.083316560000000e-02 3.645522740000000e-02 5.507187670000000e-02 3.900653160000000e-02 -2.812194930000000e-01 -1.605761350000000e-01 -3.486437230000000e-01 4.877766690000000e-01
            5.509148150000000e-02 3.897972280000000e-02 5.845323860000000e-02 3.444591890000000e-02 -3.458036760000000e-01 4.880399080000000e-01 -2.812246090000000e-01 -1.609584670000000e-01
            -2.812319870000000e-01 -1.605879920000000e-01 -3.458098560000000e-01 4.880653890000000e-01 6.537324050000000e-02 3.814055960000000e-02 5.821910260000000e-02 3.445273440000000e-02
            -3.486298540000000e-01 4.877884810000000e-01 -2.812160850000000e-01 -1.609411420000000e-01 5.824681260000000e-02 3.445312390000000e-02 6.875314289999999e-02 4.098817720000000e-02
153372811.0000000000 8.025436260000000e-02 4.261541390000000e-02 7.629141170000001e-02 4.694722870000000e-02 -3.062450170000000e-01 -9.100550189999999e-02 -2.236836420000000e-01 5.551193760000001e-01
            7.628602150000000e-02 4.694112740000000e-02 7.787344400000000e-02 4.058588790000000e-02 -2.209037380000000e-01 5.547167230000000e-01 -3.063147340000000e-01 -9.136394160000000e-02
            -3.062312560000000e-01 -9.102132430000000e-02 -2.208981260000000e-01 5.547253830000000e-01 8.425083999999999e-02 4.532848900000000e-02 7.721210890000001e-02 4.199390610000000e-02
            -2.237044950000000e-01 5.551087580000000e-01 -3.063258740000000e-01 -9.136092370000000e-02 7.722256690000000e-02 4.200244720000000e-02 8.765504930000000e-02 4.821583320000000e-02
153872394.0000000000 1.001035150000000e-01 3.909378510000000e-02 9.846618860000000e-02 4.438153180000000e-02 -3.155117350000000e-01 -1.939202320000000e-02 -8.760665880000000e-02 5.903099020000000e-01
            9.846396060000000e-02 4.435595730000000e-02 9.770399770000000e-02 3.708393940000000e-02 -8.497844430000000e-02 5.892642970000000e-01 -3.156619260000000e-01 -1.972016200000000e-02
            -3.155170880000000e-01 -1.939588110000000e-02 -8.496899260000000e-02 5.892670690000000e-01 1.041377110000000e-01 4.323383280000000e-02 9.721773960000001e-02 4.004832980000000e-02
            -8.759777430000000e-02 5.903051550000000e-01 -3.156739610000000e-01 -1.970187990000000e-02 9.722435340000000e-02 4.004756970000000e-02 1.075547850000000e-01 4.611209240000000e-02
154371977.0000000000 1.160146320000000e-01 2.705161580000000e-02 1.168344400000000e-01 3.218205500000000e-02 -3.096561710000000e-01 5.166067040000000e-02 5.135239130000000e-02 5.926892750000000e-01
            1.168296660000000e-01 3.218621120000000e-02 1.135899910000000e-01 2.505148820000000e-02 5.363715110000000e-02 5.910905260000000e-01 -3.098716770000000e-01 5.139113870000000e-02
            -3.096559800000000e-01 5.167993950000000e-02 5.362904180000000e-02 5.910864870000000e-01 1.207436000000000e-01 3.263781770000000e-02 1.139213270000000e-01 2.943321360000000e-02
            5.135045510000000e-02 5.926871530000000e-01 -3.098838760000000e-01 5.140916550000000e-02 1.139113770000000e-01 2.944054170000000e-02 1.241813640000000e-01 3.549129560000000e-02
154871560.0000000000 1.247616110000000e-01 9.232430870000001e-03 1.277267400000000e-01 1.321165300000000e-02 -2.890415020000000e-01 1.198549820000000e-01 1.857380770000000e-01 5.636718890000000e-01
            1.277246450000000e-01 1.320905480000000e-02 1.223489900000000e-01 7.254920920000000e-03 1.875934210000000e-01 5.616137570000000e-01 -2.893009830000000e-01 1.196499620000000e-01
            -2.890284100000000e-01 1.198505760000000e-01 1.875894790000000e-01 5.616183680000000e-01 1.308440430000000e-01 1.601414370000000e-02 1.239957040000000e-01 1.272648650000000e-02
            1.857403400000000e-01 5.636801400000000e-01 -2.893112490000000e-01 1.196507340000000e-01 1.239951350000000e-01 1.274730860000000e-02 1.342762660000000e-01 1.887506970000000e-02
155371143.0000000000 1.246866460000000e-01 -1.063196280000000e-02 1.290415770000000e-01 -8.594865040000000e-03 -2.538945110000000e-01 1.825682490000000e-01 3.093604350000000e-01 5.058443680000000e-01
            1.290453070000000e-01 -8.608922010000001e-03 1.222649430000000e-01 -1.261287910000000e-02 3.106767790000000e-01 5.034012030000000e-01 -2.542014140000000e-01 1.824200600000000e-01
            -2.539041420000000e-01 1.825702470000000e-01 3.106869730000000e-01 5.034147700000000e-01 1.325856240000000e-01 -3.120769860000000e-03 1.256158230000000e-01 -6.542969340000000e-03
            3.093560880000000e-01 5.058410209999999e-01 -2.542061250000000e-01 1.824282890000000e-01 1.256148000000000e-01 -6.537198700000000e-03 1.360370390000000e-01 -3.069079140000000e-04
155870726.0000000000 1.157427960000000e-01 -2.855706730000000e-02 1.204888010000000e-01 -2.883516910000000e-02 -2.048480750000000e-01 2.365759400000000e-01 4.169390210000000e-01 4.223789910000000e-01
            1.204858550000000e-01 -2.883448200000000e-02 1.133370370000000e-01 -3.052036240000000e-02 4.176659880000000e-01 4.197137020000000e-01 -2.051755170000000e-01 2.364927580000000e-01
            -2.048406080000000e-01 2.365700090000000e-01 4.176472170000000e-01 4.197202280000000e-01 1.257560420000000e-01 -2.095395940000000e-02 1.185202060000000e-01 -2.449817780000000e-02
            4.169393000000000e-01 4.223670080000000e-01 -2.051673410000000e-01 2.365162060000000e-01 1.185355370000000e-01 -2.448038560000000e-02 1.291851140000000e-01 -1.814596460000000e-02
156370309.0000000000 9.954325190000000e-02 -4.080533400000000e-02 1.036100560000000e-01 -4.332546370000000e-02 -1.435028810000000e-01 2.782112690000000e-01 5.037930859999999e-01 3.169153820000000e-01
            1.036099190000000e-01 -4.332007370000000e-02 9.716277390000000e-02 -4.275037240000000e-02 5.038900490000000e-01 3.141749370000000e-01 -1.438217900000000e-01 2.782328200000000e-01
            -1.434797530000000e-01 2.782054600000000e-01 5.039016990000000e-01 3.141621660000000e-01 1.117076930000000e-01 -3.378220400000000e-02 1.041593130000000e-01 -3.740946320000000e-02
            5.037882930000001e-01 3.169298800000000e-01 -1.438268930000000e-01 2.782407070000000e-01 1.041641140000000e-01 -3.741706270000000e-02 1.151184230000000e-01 -3.101012290000000e-02
156869892.0000000000 7.924302910000000e-02 -4.457054210000000e-02 8.168525130000000e-02 -4.877460780000000e-02 -7.289976790000000e-02 3.039072070000000e-01 5.655997490000000e-01 1.936995940000000e-01
            8.168935850000000e-02 -4.879256620000000e-02 7.688546979999999e-02 -4.651314200000000e-02 5.650618660000000e-01 1.909859830000000e-01 -7.322207450000000e-02 3.040037490000000e-01
            -7.290366270000000e-02 3.038958380000000e-01 5.650719500000000e-01 1.909877460000000e-01 9.334030370000000e-02 -3.885597930000000e-02 8.542529740000000e-02 -4.246782630000000e-02
            5.655973780000000e-01 1.936920070000000e-01 -7.323796520000000e-02 3.039963600000000e-01 8.541287600000000e-02 -4.246762030000000e-02 9.671876600000000e-02 -3.604603110000000e-02
157369475.0000000000 5.909273590000000e-02 -3.863259490000000e-02 5.928865780000000e-02 -4.361164750000000e-02 2.284906130000000e-03 3.109839390000000e-01 5.982336460000000e-01 5.792884880000000e-02
            5.927407520000000e-02 -4.361234500000000e-02 5.675689480000000e-02 -4.060034910000000e-02 5.970989650000000e-01 5.540913030000000e-02 2.004861290000000e-03 3.111499030000000e-01
            2.274063560000000e-03 3.109961260000000e-01 5.970874250000000e-01 5.540561290000000e-02 7.462640650000001e-02 -3.478197630000000e-02 6.633530980000001e-02 -3.832500190000000e-02
            5.982284230000000e-01 5.790973740000000e-02 2.011481800000000e-03 3.111463350000000e-01 6.634142550000000e-02 -3.831449700000000e-02 7.797803720000000e-02 -3.197691770000000e-02
157869058.0000000000 4.368518790000000e-02 -2.390179010000000e-02 4.145288820000000e-02 -2.856948270000000e-02 7.644224630000000e-02 2.986060240000000e-01 5.983645340000000e-01 -8.370366479999999e-02
            4.146692790000000e-02 -2.857133230000000e-02 4.137109800000000e-02 -2.589033080000000e-02 5.966553110000000e-01 -8.588052430000000e-02 7.618270330000000e-02 2.988473530000000e-01
            7.645075710000000e-02 2.986019780000000e-01 5.966585570000000e-01 -8.588041140000000e-02 5.998663130000000e-02 -2.228672990000000e-02 5.132793840000000e-02 -2.569633740000000e-02
            5.983667670000000e-01 -8.371839260000000e-02 7.621100570000000e-02 2.988575580000000e-01 5.134075070000000e-02 -2.569597740000000e-02 6.329657850000001e-02 -1.943821840000000e-02
158368641.0000000000 3.680339170000000e-02 -3.552977550000000e-03 3.248066680000000e-02 -6.797043110000000e-03 1.438628220000000e-01 2.682082990000000e-01 5.642651860000000e-01 -2.229576870000000e-01
            3.249750740000000e-02 -6.792593610000000e-03 3.449068770000000e-02 -5.560828370000000e-03 5.620958630000000e-01 -2.246837410000000e-01 1.436926850000000e-01 2.684777410000000e-01
            1.438547240000000e-01 2.682110590000000e-01 5.620880400000000e-01 -2.246688380000000e-01 5.307006960000000e-02 -4.177764960000000e-03 4.411153770000000e-02 -7.467154310000000e-03
            5.642585070000000e-01 -2.229512220000000e-01 1.436934350000000e-01 2.684706670000000e-01 4.409009070000000e-02 -7.478328010000000e-03 5.638247410000000e-02 -1.305048750000000e-03
158868224.0000000000 4.020118620000000e-02 1.764738990000000e-02 3.458175300000000e-02 1.671560180000000e-02 2.000632630000000e-01 2.231114150000000e-01 4.968176250000000e-01 -3.507091840000000e-01
            3.457476800000000e-02 1.670660180000000e-02 3.789319470000000e-02 1.563720650000000e-02 4.943234390000000e-01 -3.518804170000000e-01 1.999661610000000e-01 2.234121480000000e-01
            2.000614580000000e-01 2.231246500000000e-01 4.943204480000000e-01 -3.518759180000000e-01 5.570914940000000e-02 1.510972480000000e-02 4.641878790000000e-02 1.188595100000000e-02
            4.968130700000000e-01 -3.507302860000000e-01 1.999551760000000e-01 2.234128610000000e-01 4.641655890000000e-02 1.189101350000000e-02 5.902885940000000e-02 1.800606110000000e-02
159367807.0000000000 5.301022770000000e-02 3.468939710000000e-02 4.715034570000000e-02 3.650509420000000e-02 2.424141900000000e-01 1.677535470000000e-01 4.000135550000000e-01 -4.582860420000000e-01
            4.714700770000000e-02 3.649805510000000e-02 5.071273480000000e-02 3.265184460000000e-02 3.973079390000000e-01 -4.588100860000000e-01 2.423861010000000e-01 1.680645490000000e-01
            2.424156750000000e-01 1.677456150000000e-01 3.973054140000000e-01 -4.588165540000000e-01 6.726245800000000e-02 3.081169420000000e-02 5.760019770000000e-02 2.765235770000000e-02
            4.000182110000000e-01 -4.582780570000000e-01 2.423807690000000e-01 1.680507590000000e-01 5.761248120000000e-02 2.765626530000000e-02 7.058908870000000e-02 3.371898820000000e-02
159867389.0000000000 7.197295939999999e-02 4.365933810000000e-02 6.710381320000000e-02 4.822694960000000e-02 2.701721500000000e-01 1.063107140000000e-01 2.804482320000000e-01 -5.387014170000000e-01
            6.708743580000000e-02 4.823412700000000e-02 6.964567080000000e-02 4.161445920000000e-02 2.777208090000000e-01 -5.385770730000000e-01 2.702119610000000e-01 1.065998920000000e-01
            2.701614480000000e-01 1.063164730000000e-01 2.777129570000000e-01 -5.385765230000000e-01 8.481991220000000e-02 3.921707930000000e-02 7.473655300000000e-02 3.608847540000000e-02
            2.804307460000000e-01 -5.387017720000000e-01 2.702190490000000e-01 1.066124590000000e-01 7.473146290000000e-02 3.608675860000000e-02 8.818418300000000e-02 4.215668470000000e-02
160366972.0000000000 9.254498450000000e-02 4.293746090000000e-02 8.977855450000000e-02 4.969831050000000e-02 2.836603160000000e-01 4.212739450000000e-02 1.462806130000000e-01 -5.876728970000000e-01
            8.977517960000000e-02 4.969108240000000e-02 9.020474439999999e-02 4.088528320000000e-02 1.437056560000000e-01 -5.869314010000000e-01 2.837629640000000e-01 4.240912770000000e-02
            2.836671220000000e-01 4.212183530000000e-02 1.436858540000000e-01 -5.869197550000000e-01 1.042564420000000e-01 3.857628940000000e-02 9.358222650000000e-02 3.551004780000000e-02
            1.462946770000000e-01 -5.876661890000000e-01 2.837711200000000e-01 4.240464810000000e-02 9.357518800000000e-02 3.550657120000000e-02 1.076124040000000e-01 4.151588290000000e-02
160866555.0000000000 1.101953230000000e-01 3.309489810000000e-02 1.103591100000000e-01 4.108776680000000e-02 2.834908560000000e-01 -2.239854790000000e-02 5.975471690000000e-03 -6.036671040000000e-01
            1.103507850000000e-01 4.109184490000000e-02 1.078225740000000e-01 3.102635600000000e-02 3.637282750000000e-03 -6.023611870000000e-01 2.836694020000000e-01 -2.214970680000000e-02
            2.835024850000000e-01 -2.239174480000000e-02 3.627433470000000e-03 -6.023545660000000e-01 1.212315810000000e-01 2.925222590000000e-02 1.098513070000000e-01 2.634128610000000e-02
            5.980814200000000e-03 -6.036641170000000e-01 2.836704680000000e-01 -2.214008800000000e-02 1.098509980000000e-01 2.633717260000000e-02 1.246024250000000e-01 3.219274670000000e-02
161366138.0000000000 1.213149410000000e-01 1.659111740000000e-02 1.247747960000000e-01 2.458200910000000e-02 2.699867260000000e-01 -8.524448840000000e-02 -1.327752770000000e-01 -5.872988170000000e-01
            1.247587240000000e-01 2.456975020000000e-02 1.189332250000000e-01 1.454256790000000e-02 -1.347457220000000e-01 -5.854895850000000e-01 2.702016760000000e-01 -8.504321510000000e-02
            2.699855340000000e-01 -8.525361300000001e-02 -1.347326050000000e-01 -5.854964800000000e-01 1.323155880000000e-01 1.342591320000000e-02 1.200970890000000e-01 1.082141480000000e-02
            -1.327736550000000e-01 -5.873198710000000e-01 2.702048300000000e-01 -8.504143820000000e-02 1.201123110000000e-01 1.081435710000000e-02 1.356862960000000e-01 1.634159630000000e-02
161865721.0000000000 1.238097530000000e-01 -2.985563200000000e-03 1.304096090000000e-01 3.734672300000000e-03 2.432043530000000e-01 -1.442447700000000e-01 -2.632725650000000e-01 -5.406373710000000e-01
            1.303964160000000e-01 3.741899750000000e-03 1.214386580000000e-01 -5.007560730000000e-03 -2.647723190000000e-01 -5.384227870000000e-01 2.434617200000000e-01 -1.441022580000000e-01
            2.432088980000000e-01 -1.442434780000000e-01 -2.647555460000000e-01 -5.384258330000000e-01 1.353361760000000e-01 -5.640788760000000e-03 1.222651480000000e-01 -7.715529810000000e-03
            -2.632915620000000e-01 -5.406363460000000e-01 2.434489160000000e-01 -1.441036320000000e-01 1.222559050000000e-01 -7.717098510000000e-03 1.387281560000000e-01 -2.748195220000000e-03
162365304.0000000000 1.172838220000000e-01 -2.157425000000000e-02 1.263393180000000e-01 -1.727795660000000e-02 2.033973770000000e-01 -1.966123000000000e-01 -3.798668820000000e-01 -4.665059460000000e-01
            1.263377740000000e-01 -1.727775780000000e-02 1.149093250000000e-01 -2.359721660000000e-02 -3.808071130000000e-01 -4.640280440000000e-01 2.036731800000000e-01 -1.965338150000000e-01
            2.034092900000000e-01 -1.966164260000000e-01 -3.808000370000000e-01 -4.640280150000000e-01 1.297860990000000e-01 -2.415598030000000e-02 1.158108080000000e-01 -2.543821730000000e-02
            -3.798473500000000e-01 -4.664986380000000e-01 2.036667310000000e-01 -1.965359740000000e-01 1.158220190000000e-01 -2.542854480000000e-02 1.331502450000000e-01 -2.127343700000000e-02
162864887.0000000000 1.029820270000000e-01 -3.535087230000000e-02 1.134416320000000e-01 -3.424504250000000e-02 1.515833000000000e-01 -2.389860210000000e-01 -4.774463970000000e-01 -3.682879920000000e-01
            1.134406040000000e-01 -3.424981350000000e-02 1.006375790000000e-01 -3.734973970000000e-02 -4.778036940000000e-01 -3.656670800000000e-01 1.518592780000000e-01 -2.389666600000000e-01
            1.515770270000000e-01 -2.389779470000000e-01 -4.777829470000000e-01 -3.656773270000000e-01 1.166366190000000e-01 -3.843957400000000e-02 1.019071550000000e-01 -3.860271770000000e-02
            -4.774453650000000e-01 -3.683004160000000e-01 1.518637490000000e-01 -2.389571010000000e-01 1.019073990000000e-01 -3.860267010000000e-02 1.199835210000000e-01 -3.555651430000000e-02
163364470.0000000000 8.374008519999999e-02 -4.123025130000000e-02 9.431406689999999e-02 -4.361606680000000e-02 9.011485900000001e-02 -2.678514580000000e-01 -5.513608860000000e-01 -2.499475030000000e-01
            9.432011200000000e-02 -4.362357260000000e-02 8.143807470000000e-02 -4.324301610000000e-02 -5.510998270000000e-01 -2.473326480000000e-01 9.037416230000000e-02 -2.678881190000000e-01
            9.010747210000000e-02 -2.678511090000000e-01 -5.510936690000000e-01 -2.473135660000000e-01 9.844489550000000e-02 -4.544667640000000e-02 8.319582120000001e-02 -4.428554650000000e-02
            -5.513442730000000e-01 -2.499557430000000e-01 9.038633540000000e-02 -2.679042580000000e-01 8.320390920000000e-02 -4.426944500000000e-02 1.017756240000000e-01 -4.258313340000000e-02
163864053.0000000000 6.360467690000000e-02 -3.763021980000000e-02 7.298128980000000e-02 -4.324606170000000e-02 2.280060620000000e-02 -2.803116850000000e-01 -5.971048480000000e-01 -1.163991560000000e-01
            7.298021859999999e-02 -4.323599570000000e-02 6.130273030000000e-02 -3.964415850000000e-02 -5.962445590000000e-01 -1.139269050000000e-01 2.307510420000000e-02 -2.804447840000000e-01
            2.279508180000000e-02 -2.803254510000000e-01 -5.962485810000000e-01 -1.139061090000000e-01 7.899672430000000e-02 -4.348550920000000e-02 6.355161890000000e-02 -4.078994800000000e-02
            -5.971254030000001e-01 -1.164154210000000e-01 2.306994690000000e-02 -2.804401190000000e-01 6.354269260000001e-02 -4.079431760000000e-02 8.228832420000000e-02 -4.062015330000000e-02
164363636.0000000000 4.712204760000000e-02 -2.489986880000000e-02 5.423024960000000e-02 -3.300849980000000e-02 -4.522597280000000e-02 -2.750689450000000e-01 -6.108592170000000e-01 2.600302270000000e-02
            5.423693570000000e-02 -3.302076710000000e-02 4.483332490000000e-02 -2.690279980000000e-02 -6.094352560000000e-01 2.823888670000000e-02 -4.501098550000000e-02 -2.752558990000000e-01
            -4.523937390000000e-02 -2.750738090000000e-01 -6.094375810000000e-01 2.824116590000000e-02 6.258774150000000e-02 -3.278030050000000e-02 4.735284130000000e-02 -2.849980520000000e-02
            -6.108547060000000e-01 2.599821930000000e-02 -4.502912510000000e-02 -2.752475570000000e-01 4.734322500000000e-02 -2.850818770000000e-02 6.586644940000000e-02 -2.989230020000000e-02
164863219.0000000000 3.833034860000000e-02 -5.658695340000000e-03 4.249353880000000e-02 -1.522145310000000e-02 -1.086455420000000e-01 -2.527423680000000e-01 -5.901278280000000e-01 1.693434810000000e-01
            4.248457950000000e-02 -1.521107550000000e-02 3.604925640000000e-02 -7.704945150000000e-03 -5.882159310000000e-01 1.711716200000000e-01 -1.084762910000000e-01 -2.529741100000000e-01
            -1.086579870000000e-01 -2.527447190000000e-01 -5.882334420000001e-01 1.711727080000000e-01 5.319251950000000e-02 -1.566084890000000e-02 3.853328090000000e-02 -9.894011980000001e-03
            -5.901385160000000e-01 1.693507310000000e-01 -1.084810150000000e-01 -2.529767220000000e-01 3.853165340000000e-02 -9.888753120000000e-03 5.643892500000000e-02 -1.274443010000000e-02
165362802.0000000000 3.955710320000000e-02 1.565155520000000e-02 4.057262770000000e-02 5.863767120000000e-03 -1.629056970000000e-01 -2.161030120000000e-01 -5.348928030000000e-01 3.045104490000000e-01
            4.058616450000000e-02 5.857108340000000e-03 3.728650980000000e-02 1.358901320000000e-02 -5.325842710000001e-01 3.058574430000000e-01 -1.628018210000000e-01 -2.163471730000000e-01
            -1.628888820000000e-01 -2.161032620000000e-01 -5.325982820000000e-01 3.058504170000000e-01 5.304176600000000e-02 3.713127970000000e-03 3.930109180000000e-02 1.079068380000000e-02
            -5.348737750000000e-01 3.045220670000000e-01 -1.627881920000000e-01 -2.163551550000000e-01 3.932165720000000e-02 1.078564790000000e-02 5.628468300000000e-02 6.665811880000000e-03
165862385.0000000000 5.059759030000000e-02 3.393180380000000e-02 4.877219830000000e-02 2.514759490000000e-02 -2.051235010000000e-01 -1.690370370000000e-01 -4.480594840000000e-01 4.224406230000000e-01
            4.878044390000000e-02 2.513551390000000e-02 4.830775540000000e-02 3.185068910000000e-02 -4.455606070000000e-01 4.231803460000000e-01 -2.050959790000000e-01 -1.693022390000000e-01
            -2.051202880000000e-01 -1.690313840000000e-01 -4.455565890000000e-01 4.231772990000000e-01 6.208837320000000e-02 2.064563650000000e-02 4.956222460000000e-02 2.866870760000000e-02
            -4.480722360000000e-01 4.224310870000000e-01 -2.050928000000000e-01 -1.693031900000000e-01 4.956222940000000e-02 2.867455100000000e-02 6.534141650000000e-02 2.363370990000000e-02
166361968.0000000000 6.875324510000000e-02 4.496501600000000e-02 6.480116730000000e-02 3.806167920000000e-02 -2.343399640000000e-01 -1.155379960000000e-01 -3.355449290000000e-01 5.153630250000000e-01
            6.481823940000001e-02 3.807409020000000e-02 6.645140170000000e-02 4.286807070000000e-02 -3.329361760000000e-01 5.154970800000001e-01 -2.343475620000000e-01 -1.157980650000000e-01
            -2.343371710000000e-01 -1.155356500000000e-01 -3.329454240000000e-01 5.154872720000000e-01 7.790518210000000e-02 3.111398400000000e-02 6.671631990000000e-02 3.970456860000000e-02
            -3.355493310000000e-01 5.153625750000000e-01 -2.343598170000000e-01 -1.157922480000000e-01 6.675414230000000e-02 3.971055300000000e-02 8.116075480000000e-02 3.411571630000000e-02
166861551.0000000000 8.971044200000000e-02 4.643880980000000e-02 8.466690339999999e-02 4.198503530000000e-02 -2.507322660000000e-01 -5.882730040000000e-02 -2.050629950000000e-01 5.780491870000000e-01
            8.465611369999999e-02 4.198431540000000e-02 8.741432940000000e-02 4.433862380000000e-02 -2.025090740000000e-01 5.775732540000000e-01 -2.508032520000000e-01 -5.907182590000000e-02
            -2.507361760000000e-01 -5.883424270000000e-02 -2.024930990000000e-01 5.775654290000000e-01 9.657057950000000e-02 3.287856230000000e-02 8.671372290000000e-02 4.162836120000000e-02
            -2.050472870000000e-01 5.780382980000000e-01 -2.507998850000000e-01 -5.907004070000000e-02 8.670883610000001e-02 4.163482880000000e-02 9.985593050000000e-02 3.588187160000000e-02
167361134.0000000000 1.088336010000000e-01 3.837374710000000e-02 1.037905060000000e-01 3.643728380000000e-02 -2.549167440000000e-01 -1.166387410000000e-03 -6.496839900000000e-02 6.079477840000000e-01
            1.037933010000000e-01 3.645309730000000e-02 1.065008640000000e-01 3.629630810000000e-02 -6.259597330000000e-02 6.069164080000000e-01 -2.550398930000000e-01 -1.401920520000000e-03
            -2.549148240000000e-01 -1.177245780000000e-03 -6.260046380000001e-02 6.069151810000000e-01 1.137672440000000e-01 2.586824920000000e-02 1.050982880000000e-01 3.441528140000000e-02
            -6.495430500000000e-02 6.079502770000000e-01 -2.550499460000000e-01 -1.393632680000000e-03 1.050808690000000e-01 3.439607880000000e-02 1.170716060000000e-01 2.884360190000000e-02
167860717.0000000000 1.221802820000000e-01 2.283901610000000e-02 1.181185270000000e-01 2.302085410000000e-02 -2.472288980000000e-01 5.570907120000000e-02 7.673630040000000e-02 6.048811960000000e-01
            1.181248820000000e-01 2.302321450000000e-02 1.198602690000000e-01 2.075854720000000e-02 7.877306680000000e-02 6.033329700000000e-01 -2.473886430000000e-01 5.552045330000000e-02
            -2.472279430000000e-01 5.570107360000000e-02 7.877941049999999e-02 6.033246490000000e-01 1.258502680000000e-01 1.185012300000000e-02 1.180799390000000e-01 1.992212310000000e-02
            7.673728550000000e-02 6.048839110000001e-01 -2.473926410000000e-01 5.552830450000000e-02 1.180837890000000e-01 1.992353160000000e-02 1.291607500000000e-01 1.484369550000000e-02
168360300.0000000000 1.272070380000000e-01 3.176375650000000e-03 1.248635820000000e-01 4.751865690000000e-03 -2.276611440000000e-01 1.100543940000000e-01 2.129639210000000e-01 5.702576240000000e-01
            1.248756600000000e-01 4.759091700000000e-03 1.248933930000000e-01 1.100564910000000e-03 2.145740310000000e-01 5.683006920000000e-01 -2.278561510000000e-01 1.099082340000000e-01
            -2.276765130000000e-01 1.100471800000000e-01 2.145647690000000e-01 5.682906990000000e-01 1.303905750000000e-01 -6.083393280000000e-03 1.232054180000000e-01 1.348911990000000e-03
            2.129619290000000e-01 5.702612030000000e-01 -2.278654050000000e-01 1.099031990000000e-01 1.232069650000000e-01 1.357772220000000e-03 1.337095760000000e-01 -3.132688210000000e-03
168859883.0000000000 1.230831180000000e-01 -1.661302430000000e-02 1.227655030000000e-01 -1.456569010000000e-02 -1.961920680000000e-01 1.594999610000000e-01 3.375746210000000e-01 5.065322870000000e-01
            1.227587720000000e-01 -1.457236080000000e-02 1.207862210000000e-01 -1.866231980000000e-02 3.386864670000000e-01 5.042633250000000e-01 -1.964297890000000e-01 1.594142190000000e-01
            -1.962025750000000e-01 1.595059340000000e-01 3.386933200000000e-01 5.042646540000000e-01 1.264912100000000e-01 -2.426692560000000e-02 1.195609290000000e-01 -1.750622670000000e-02
            3.375907080000000e-01 5.065383620000000e-01 -1.964403430000000e-01 1.594047550000000e-01 1.195639940000000e-01 -1.749069370000000e-02 1.297911100000000e-01 -2.132785240000000e-02
169359466.0000000000 1.106241320000000e-01 -3.254937750000000e-02 1.122206020000000e-01 -3.098881800000000e-02 -1.533835450000000e-01 2.011148190000000e-01 4.451574660000000e-01 4.167534660000000e-01
            1.122236990000000e-01 -3.098160840000000e-02 1.083172960000000e-01 -3.459068570000000e-02 4.457408560000000e-01 4.142948180000000e-01 -1.536293990000000e-01 2.010804470000000e-01
            -1.533891570000000e-01 2.011081940000000e-01 4.457264490000000e-01 4.143143010000000e-01 1.148554680000000e-01 -3.904933950000000e-02 1.078583010000000e-01 -3.279735360000000e-02
            4.451689770000000e-01 4.167771170000000e-01 -1.536121440000000e-01 2.010810000000000e-01 1.078651620000000e-01 -3.280068460000000e-02 1.181230960000000e-01 -3.611426500000000e-02
169859049.0000000000 9.225166490000000e-02 -4.129057600000000e-02 9.527770010000000e-02 -4.100222820000000e-02 -1.008856920000000e-01 2.315790220000000e-01 5.306482729999999e-01 3.046152850000000e-01
            9.528947480000000e-02 -4.100804410000000e-02 8.996975929999999e-02 -4.332940420000000e-02 5.306311290000000e-01 3.020995460000000e-01 -1.011335640000000e-01 2.316046520000000e-01
            -1.008706670000000e-01 2.315753900000000e-01 5.306328190000000e-01 3.020976760000000e-01 9.766347940000000e-02 -4.723328220000000e-02 9.040034590000000e-02 -4.129254860000000e-02
            5.306409430000000e-01 3.046128800000000e-01 -1.011260830000000e-01 2.316140370000000e-01 9.041667980000000e-02 -4.128844550000000e-02 1.009091100000000e-01 -4.428958620000000e-02
170358632.0000000000 7.177037560000001e-02 -4.077465900000000e-02 7.545981440000001e-02 -4.224259740000000e-02 -4.181058640000000e-02 2.479421560000000e-01 5.892220740000000e-01 1.747304820000000e-01
            7.545221040000000e-02 -4.223697770000000e-02 6.949732570000000e-02 -4.283378030000000e-02 5.886361690000000e-01 1.722728070000000e-01 -4.204771510000000e-02 2.480272080000000e-01
            -4.182200150000000e-02 2.479413300000000e-01 5.886411459999999e-01 1.722703020000000e-01 7.838891100000001e-02 -4.682473100000000e-02 7.077192000000000e-02 -4.096228330000000e-02
            5.892328410000000e-01 1.747255870000000e-01 -4.204839200000000e-02 2.480289620000000e-01 7.077110900000000e-02 -4.095529020000000e-02 8.163266070000000e-02 -4.390195490000000e-02
170858215.0000000000 5.363535010000000e-02 -3.087171350000000e-02 5.713246410000000e-02 -3.416197350000000e-02 1.942509380000000e-02 2.484543680000000e-01 6.165934820000000e-01 3.306195930000000e-02
            5.713884330000000e-02 -3.415988910000000e-02 5.138950820000000e-02 -3.293137990000000e-02 6.154348240000000e-01 3.082546880000000e-02 1.923257110000000e-02 2.486065690000000e-01
            1.941607370000000e-02 2.484563160000000e-01 6.154360890000000e-01 3.081637610000000e-02 6.126103260000000e-02 -3.764874220000000e-02 5.327896580000000e-02 -3.154951620000000e-02
            6.165836200000000e-01 3.308841400000000e-02 1.921601840000000e-02 2.485913230000000e-01 5.328926040000000e-02 -3.155875510000000e-02 6.447244200000000e-02 -3.469600840000000e-02
171357798.0000000000 4.213599970000000e-02 -1.357749980000000e-02 4.461382760000000e-02 -1.842423540000000e-02 7.788377430000000e-02 2.331834940000000e-01 6.096162950000000e-01 -1.127593650000000e-01
            4.461976460000000e-02 -1.842552500000000e-02 3.989375930000000e-02 -1.567595630000000e-02 6.079899970000000e-01 -1.146729480000000e-01 7.773047850000001e-02 2.333718960000000e-01
            7.788762460000000e-02 2.332099970000000e-01 6.079845400000000e-01 -1.146699390000000e-01 5.026270780000000e-02 -2.153255650000000e-02 4.205180480000000e-02 -1.501328250000000e-02
            6.096396520000000e-01 -1.127664130000000e-01 7.773118430000001e-02 2.333633590000000e-01 4.205267810000000e-02 -1.501062970000000e-02 5.341585780000000e-02 -1.854939650000000e-02
171857381.0000000000 4.007653220000000e-02 7.094655370000000e-03 4.095982700000000e-02 1.284120640000000e-03 1.291305930000000e-01 2.042203110000000e-01 5.673798090000000e-01 -2.538234410000000e-01
            4.095219890000000e-02 1.281783960000000e-03 3.784445530000000e-02 4.987409200000000e-03 5.653659140000000e-01 -2.552735650000000e-01 1.290335100000000e-01 2.044232750000000e-01
            1.291310420000000e-01 2.042195540000000e-01 5.653574920000000e-01 -2.552756540000000e-01 4.803515320000000e-02 -2.199546380000000e-03 3.980364450000000e-02 4.898273300000000e-03
            5.673927430000000e-01 -2.538257040000000e-01 1.290283120000000e-01 2.044230920000000e-01 3.980105270000000e-02 4.890143470000000e-03 5.120727390000000e-02 7.900469280000000e-04
172356964.0000000000 4.795029320000000e-02 2.618773820000000e-02 4.694032380000000e-02 2.023059270000000e-02 1.701671640000000e-01 1.649364230000000e-01 4.918591510000000e-01 -3.807769010000000e-01
            4.694253840000000e-02 2.022581440000000e-02 4.571243760000000e-02 2.406999430000000e-02 4.895379560000000e-01 -3.817276340000000e-01 1.700992410000000e-01 1.651295560000000e-01
            1.701464150000000e-01 1.649248970000000e-01 4.895431070000000e-01 -3.817319460000000e-01 5.507299160000000e-02 1.572075700000000e-02 4.704307480000000e-02 2.343387520000000e-02
            4.918613910000000e-01 -3.808000870000000e-01 1.701182120000000e-01 1.651366340000000e-01 4.704433220000000e-02 2.342267170000000e-02 5.825409740000000e-02 1.876535200000000e-02
172856547.0000000000 6.369544990000001e-02 3.921163280000000e-02 6.089741970000000e-02 3.390828470000000e-02 1.996993540000000e-01 1.190065130000000e-01 3.879607220000000e-01 -4.853783810000000e-01
            6.090524870000000e-02 3.390966310000000e-02 6.147034610000000e-02 3.708127490000000e-02 3.855223570000000e-01 -4.857420360000000e-01 1.996952270000000e-01 1.192190730000000e-01
            1.996953470000000e-01 1.190074380000000e-01 3.855073010000000e-01 -4.857453440000000e-01 6.952811690000001e-02 2.806296130000000e-02 6.187809300000000e-02 3.630202960000000e-02
            3.879724510000000e-01 -4.853694360000000e-01 1.996798370000000e-01 1.192087180000000e-01 6.188956050000000e-02 3.630202000000000e-02 7.270142110000000e-02 3.109862020000000e-02
173356130.0000000000 8.344969620000001e-02 4.332618410000000e-02 7.926538599999999e-02 3.938909090000000e-02 2.177787870000000e-01 6.956896059999999e-02 2.628692830000000e-01 -5.614044700000000e-01
            7.926727350000000e-02 3.937826690000000e-02 8.119675980000000e-02 4.117404950000000e-02 2.604061870000000e-01 -5.611830620000000e-01 2.178155900000000e-01 6.978390320000000e-02
            2.177645410000000e-01 6.958242830000000e-02 2.604067060000000e-01 -5.611900690000000e-01 8.772421660000000e-02 3.213745210000000e-02 8.062796379999999e-02 4.079736730000000e-02
            2.628637120000000e-01 -5.613990320000000e-01 2.178266820000000e-01 6.978328940000000e-02 8.062845260000000e-02 4.080826870000000e-02 9.092498360000000e-02 3.518621100000000e-02
173855713.0000000000 1.026085560000000e-01 3.794479350000000e-02 9.771973380000000e-02 3.580505300000000e-02 2.250123900000000e-01 1.877808700000000e-02 1.247087830000000e-01 -6.053319430000000e-01
            9.771585570000001e-02 3.581512390000000e-02 1.003323500000000e-01 3.581513420000000e-02 1.223815780000000e-01 -6.045687810000000e-01 2.251027080000000e-01 1.897756800000000e-02
            2.250105350000000e-01 1.879017000000000e-02 1.223873390000000e-01 -6.045685440000000e-01 1.054461790000000e-01 2.741439820000000e-02 9.898198699999999e-02 3.631861060000000e-02
            1.247028340000000e-01 -6.053342920000000e-01 2.250990600000000e-01 1.897781360000000e-02 9.898017900000000e-02 3.630925470000000e-02 1.086619310000000e-01 3.045631660000000e-02
174355296.0000000000 1.170186710000000e-01 2.454895420000000e-02 1.122167840000000e-01 2.435691920000000e-02 2.217645910000000e-01 -3.184574720000000e-02 -1.841942780000000e-02 -6.160930500000000e-01
            1.122077760000000e-01 2.435343710000000e-02 1.147603210000000e-01 2.242015410000000e-02 -2.048258300000000e-02 -6.148255150000000e-01 2.218895730000000e-01 -3.170472740000000e-02
            2.217550420000000e-01 -3.185778610000000e-02 -2.047313350000000e-02 -6.148145510000000e-01 1.188395400000000e-01 1.524301390000000e-02 1.130053050000000e-01 2.422983930000000e-02
            -1.841577520000000e-02 -6.160886110000000e-01 2.218922860000000e-01 -3.169903620000000e-02 1.129994290000000e-01 2.424035320000000e-02 1.220673740000000e-01 1.828094010000000e-02
174854879.0000000000 1.238055560000000e-01 6.208798570000000e-03 1.198112810000000e-01 7.756748430000000e-03 2.080446510000000e-01 -8.089260619999999e-02 -1.590872680000000e-01 -5.943751320000000e-01
            1.198314020000000e-01 7.747297710000000e-03 1.215512340000000e-01 4.084304800000000e-03 -1.607903810000000e-01 -5.926623350000000e-01 2.081920810000000e-01 -8.075433009999999e-02
            2.080281580000000e-01 -8.090124410000001e-02 -1.607995270000000e-01 -5.926709390000000e-01 1.252218610000000e-01 -1.555170110000000e-03 1.199681730000000e-01 7.414089450000000e-03
            -1.590950970000000e-01 -5.943650029999999e-01 2.081840370000000e-01 -8.074813480000000e-02 1.199739150000000e-01 7.406059210000000e-03 1.284559870000000e-01 1.466145160000000e-03
175354462.0000000000 1.216753480000000e-01 -1.324982220000000e-02 1.190363060000000e-01 -1.044736670000000e-02 1.836710700000000e-01 -1.264020460000000e-01 -2.908034500000000e-01 -5.420537390000000e-01
            1.190414610000000e-01 -1.044844920000000e-02 1.193903750000000e-01 -1.536383420000000e-02 -2.920618550000000e-01 -5.400106690000001e-01 1.838429410000000e-01 -1.263129920000000e-01
            1.836578500000000e-01 -1.263996020000000e-01 -2.920564970000000e-01 -5.400082170000000e-01 1.233572870000000e-01 -1.940800100000000e-02 1.186054510000000e-01 -1.058502210000000e-02
            -2.907867370000000e-01 -5.420461240000000e-01 1.838376600000000e-01 -1.263247330000000e-01 1.186078310000000e-01 -1.058628730000000e-02 1.265875650000000e-01 -1.639775180000000e-02
175854045.0000000000 1.109316130000000e-01 -2.979401250000000e-02 1.100341570000000e-01 -2.637214890000000e-02 1.488381520000000e-01 -1.658257630000000e-01 -4.076553330000000e-01 -4.617969080000000e-01
            1.100452350000000e-01 -2.637121890000000e-02 1.086851930000000e-01 -3.190367680000000e-02 -4.084282620000000e-01 -4.595260420000000e-01 1.490327480000000e-01 -1.657902630000000e-01
            1.488541490000000e-01 -1.658293750000000e-01 -4.084272550000000e-01 -4.595258330000000e-01 1.136168330000000e-01 -3.462545030000000e-02 1.092689830000000e-01 -2.595275650000000e-02
            -4.076683160000000e-01 -4.617844490000000e-01 1.490475260000000e-01 -1.657868980000000e-01 1.092722550000000e-01 -2.595272690000000e-02 1.168337280000000e-01 -3.160880840000000e-02
176353628.0000000000 9.373829400000000e-02 -3.991038540000000e-02 9.454723650000001e-02 -3.656361990000000e-02 1.047570120000000e-01 -1.961598920000000e-01 -5.042370680000000e-01 -3.569389360000000e-01
            9.455361869999999e-02 -3.656328780000000e-02 9.150018020000000e-02 -4.201406510000000e-02 -5.044600500000000e-01 -3.545553360000000e-01 1.049494660000000e-01 -1.961822720000000e-01
            1.047683660000000e-01 -1.961557660000000e-01 -5.044642200000000e-01 -3.545577710000000e-01 9.791789310000000e-02 -4.392573710000000e-02 9.387823910000000e-02 -3.538894310000000e-02
            -5.042233430000000e-01 -3.569333710000000e-01 1.049631900000000e-01 -1.961806030000000e-01 9.388643780000000e-02 -3.539231190000000e-02 1.011003030000000e-01 -4.092321030000000e-02
176853211.0000000000 7.351003870000000e-02 -4.118271370000000e-02 7.580343400000000e-02 -3.850275070000000e-02 5.389603430000000e-02 -2.145150550000000e-01 -5.752744300000000e-01 -2.318188810000000e-01
            7.580489840000000e-02 -3.849855250000000e-02 7.130465270000000e-02 -4.329409460000000e-02 -5.749385280000000e-01 -2.294403420000000e-01 5.408909680000000e-02 -2.145791180000000e-01
            5.389259860000000e-02 -2.145138340000000e-01 -5.749507440000000e-01 -2.294353380000000e-01 7.942808360000000e-02 -4.508025650000000e-02 7.573003940000000e-02 -3.664245530000000e-02
            -5.752914400000000e-01 -2.318049540000000e-01 5.409004890000000e-02 -2.145801640000000e-01 7.572132020000000e-02 -3.665776900000000e-02 8.260622180000000e-02 -4.208420140000000e-02
177352794.0000000000 5.463546870000000e-02 -3.301190150000000e-02 5.794797100000000e-02 -3.139639140000000e-02 1.714972350000000e-05 -2.189815430000000e-01 -6.160028600000000e-01 -9.206605120000000e-02
            5.795536220000000e-02 -3.138919490000000e-02 5.244702510000000e-02 -3.512461140000000e-02 -6.151385400000000e-01 -8.985359599999999e-02 1.952112760000000e-04 -2.190985760000000e-01
            1.826217110000000e-05 -2.189871070000000e-01 -6.151241280000000e-01 -8.984981450000000e-02 6.226220830000000e-02 -3.754783190000000e-02 5.890239060000000e-02 -2.918050510000000e-02
            -6.159987350000000e-01 -9.205914500000000e-02 1.873364870000000e-04 -2.190925830000000e-01 5.889655020000000e-02 -2.918074220000000e-02 6.539874880000000e-02 -3.454688970000000e-02
177852377.0000000000 4.150160070000000e-02 -1.689661850000000e-02 4.528160840000000e-02 -1.651487150000000e-02 -5.238686000000000e-02 -2.092673370000000e-01 -6.226840080000000e-01 5.494781150000000e-02
            4.528313760000000e-02 -1.652608760000000e-02 3.932704900000000e-02 -1.903171590000000e-02 -6.213267780000000e-01 5.689070730000000e-02 -5.224424090000000e-02 -2.094068280000000e-01
            -5.239615890000000e-02 -2.092667620000000e-01 -6.213204060000000e-01 5.690340440000000e-02 5.042643980000000e-02 -2.277602240000000e-02 4.749138600000000e-02 -1.447533770000000e-02
            -6.226886950000000e-01 5.494769910000000e-02 -5.224604600000000e-02 -2.093986680000000e-01 4.747716890000000e-02 -1.447464090000000e-02 5.354545760000000e-02 -1.974022840000000e-02
178351960.0000000000 3.727986860000000e-02 3.531284300000000e-03 4.100190450000000e-02 2.785202340000000e-03 -9.915988150000001e-02 -1.868994030000000e-01 -5.936249570000000e-01 2.004445940000000e-01
            4.100567270000000e-02 2.770597930000000e-03 3.509297910000000e-02 1.404578350000000e-03 -5.918368340000000e-01 2.020032500000000e-01 -9.907043760000001e-02 -1.870615310000000e-01
            -9.917206580000000e-02 -1.869019860000000e-01 -5.918466510000000e-01 2.020005540000000e-01 4.686100510000000e-02 -4.099960220000000e-03 4.442763820000000e-02 4.046588440000000e-03
            -5.936035450000000e-01 2.004472070000000e-01 -9.906525150000001e-02 -1.870622610000000e-01 4.441626610000000e-02 4.047635970000000e-03 4.996883290000000e-02 -1.044935300000000e-03
178851543.0000000000 4.299223770000000e-02 2.355842900000000e-02 4.626774740000000e-02 2.194802190000000e-02 -1.373645840000000e-01 -1.548553000000000e-01 -5.298896000000000e-01 3.349337680000000e-01
            4.626877960000000e-02 2.194705830000000e-02 4.080476230000000e-02 2.138195340000000e-02 -5.277983740000000e-01 3.360370710000000e-01 -1.373068310000000e-01 -1.550092160000000e-01
            -1.373725890000000e-01 -1.548386370000000e-01 -5.277884600000000e-01 3.360321800000000e-01 5.244103730000000e-02 1.401961150000000e-02 5.054152260000000e-02 2.186710140000000e-02
            -5.298973809999999e-01 3.349432010000000e-01 -1.373156610000000e-01 -1.550261850000000e-01 5.054955360000000e-02 2.186695380000000e-02 5.554204140000000e-02 1.709079320000000e-02
179351126.0000000000 5.716604020000000e-02 3.845634790000000e-02 5.981824210000000e-02 3.645823220000000e-02 -1.656717710000000e-01 -1.164712830000000e-01 -4.356217160000000e-01 4.496983020000000e-01
            5.980870190000000e-02 3.645360800000000e-02 5.497460500000000e-02 3.630743970000000e-02 -4.333369150000000e-01 4.502564000000000e-01 -1.656559360000000e-01 -1.166389970000000e-01
            -1.656576620000000e-01 -1.164585180000000e-01 -4.333323260000000e-01 4.502539340000000e-01 6.573240079999999e-02 2.728699930000000e-02 6.436245950000000e-02 3.468602980000000e-02
            -4.356252660000000e-01 4.497020390000000e-01 -1.656530110000000e-01 -1.166376810000000e-01 6.437142799999999e-02 3.468419060000000e-02 6.883987799999999e-02 3.039800960000000e-02
179850709.0000000000 7.627092390000000e-02 4.506638050000000e-02 7.835390080000000e-02 4.308007260000000e-02 -1.840928740000000e-01 -7.461935490000000e-02 -3.173593360000000e-01 5.378427690000001e-01
            7.834600840000000e-02 4.308233300000000e-02 7.408100530000000e-02 4.287845410000000e-02 -3.150360640000000e-01 5.378652250000000e-01 -1.841241320000000e-01 -7.477163250000000e-02
            -1.841019070000000e-01 -7.461618300000000e-02 -3.150381920000000e-01 5.378642110000000e-01 8.343441740000000e-02 3.280466160000000e-02 8.250218550000001e-02 3.953339170000000e-02
            -3.173636450000000e-01 5.378481130000000e-01 -1.841305080000000e-01 -7.479467330000000e-02 8.251376310000000e-02 3.953549870000000e-02 8.657158399999999e-02 3.592784340000000e-02
180350292.0000000000 9.592003230000000e-02 4.225535380000000e-02 9.765941770000000e-02 4.062054080000000e-02 -1.932481750000000e-01 -3.122869290000000e-02 -1.829512420000000e-01 5.950371790000000e-01
            9.763813130000000e-02 4.061751840000000e-02 9.371294710000000e-02 4.007897730000000e-02 -1.807101650000000e-01 5.945191040000000e-01 -1.933062890000000e-01 -3.139261590000000e-02
            -1.932532350000000e-01 -3.123168920000000e-02 -1.806923670000000e-01 5.945162680000000e-01 1.014358930000000e-01 2.965535700000000e-02 1.007417750000000e-01 3.551997960000000e-02
            -1.829493390000000e-01 5.950241140000000e-01 -1.932870290000000e-01 -3.141055520000000e-02 1.007594350000000e-01 3.551658700000000e-02 1.045867990000000e-01 3.275537660000000e-02
180849875.0000000000 1.118515490000000e-01 3.108062880000000e-02 1.136224400000000e-01 2.993191570000000e-02 -1.935498920000000e-01 1.246488600000000e-02 -4.044265640000000e-02 6.193452000000000e-01
            1.136086140000000e-01 2.991334940000000e-02 1.096276780000000e-01 2.888489640000000e-02 -3.839050240000000e-02 6.183359500000000e-01 -1.936294490000000e-01 1.234262380000000e-02
            -1.935431230000000e-01 1.247875860000000e-02 -3.839054890000000e-02 6.183472169999999e-01 1.158639510000000e-01 1.880179380000000e-02 1.151335210000000e-01 2.372490680000000e-02
            -4.042568600000000e-02 6.193479850000000e-01 -1.936406780000000e-01 1.232855250000000e-02 1.151207860000000e-01 2.372449130000000e-02 1.190016730000000e-01 2.191492000000000e-02
181349458.0000000000 1.208780720000000e-01 1.413545560000000e-02 1.231185140000000e-01 1.344675140000000e-02 -1.849513450000000e-01 5.542373600000000e-02 1.026379350000000e-01 6.108268260000000e-01
            1.231093390000000e-01 1.344569950000000e-02 1.186558090000000e-01 1.196633840000000e-02 1.043940830000000e-01 6.093842660000000e-01 -1.850647190000000e-01 5.530261540000000e-02
            -1.849536840000000e-01 5.542100790000000e-02 1.043968900000000e-01 6.093843190000000e-01 1.237993850000000e-01 2.796652060000000e-03 1.227066650000000e-01 6.778352540000000e-03
            1.026374910000000e-01 6.108249630000000e-01 -1.850584080000000e-01 5.530331890000000e-02 1.227016340000000e-01 6.768499760000000e-03 1.269502770000000e-01 5.899594160000000e-03
181849041.0000000000 1.213217810000000e-01 -4.890121510000000e-03 1.243651520000000e-01 -5.412340980000000e-03 -1.671317090000000e-01 9.618531890000000e-02 2.395316260000000e-01 5.707883010000000e-01
            1.243727800000000e-01 -5.419958700000000e-03 1.191112190000000e-01 -7.065181090000000e-03 2.408949130000000e-01 5.689821130000000e-01 -1.672830440000000e-01 9.609776130000000e-02
            -1.671128620000000e-01 9.619438340000000e-02 2.408915700000000e-01 5.689830150000000e-01 1.237661860000000e-01 -1.498463780000000e-02 1.219957190000000e-01 -1.184800460000000e-02
            2.395306570000000e-01 5.707892190000000e-01 -1.672796430000000e-01 9.610985990000000e-02 1.219662900000000e-01 -1.183463280000000e-02 1.269076840000000e-01 -1.190550220000000e-02
182348624.0000000000 1.131449500000000e-01 -2.209632040000000e-02 1.171698320000000e-01 -2.286075820000000e-02 -1.399535250000000e-01 1.326114730000000e-01 3.640918830000000e-01 5.013837400000000e-01
            1.171758060000000e-01 -2.286033420000000e-02 1.109445140000000e-01 -2.423989070000000e-02 3.649965190000000e-01 4.993311790000000e-01 -1.401153070000000e-01 1.325619560000000e-01
            -1.399511210000000e-01 1.326024410000000e-01 3.650031950000000e-01 4.993375050000000e-01 1.158167790000000e-01 -3.093093940000000e-02 1.130296020000000e-01 -2.831670280000000e-02
            3.641001700000000e-01 5.013730540000000e-01 -1.401069190000000e-01 1.325693610000000e-01 1.130231130000000e-01 -2.832506440000000e-02 1.189625800000000e-01 -2.785590730000000e-02
182848207.0000000000 9.797312110000000e-02 -3.382271320000000e-02 1.029304550000000e-01 -3.531831100000000e-02 -1.040161650000000e-01 1.619620180000000e-01 4.705711010000000e-01 4.055769160000000e-01
            1.029397780000000e-01 -3.531529850000000e-02 9.577750929999999e-02 -3.598516550000000e-02 4.709865580000000e-01 4.033672510000000e-01 -1.041834020000000e-01 1.619463080000000e-01
            -1.040076400000000e-01 1.619553500000000e-01 4.709890660000000e-01 4.033598080000000e-01 1.014827970000000e-01 -4.167631970000000e-02 9.752494520000000e-02 -3.922959860000000e-02
            4.705789930000000e-01 4.055628530000000e-01 -1.041702200000000e-01 1.619614220000000e-01 9.753078610000000e-02 -3.922768150000000e-02 1.046126840000000e-01 -3.860474920000000e-02
183347790.0000000000 7.886791629999999e-02 -3.740228410000000e-02 8.450174430000000e-02 -4.004965760000000e-02 -6.119064540000000e-02 1.814579800000000e-01 5.534233970000000e-01 2.871881800000000e-01
            8.449343680000000e-02 -4.006105430000000e-02 7.667955750000000e-02 -3.956019390000000e-02 5.533152600000000e-01 2.849427790000000e-01 -6.135737560000000e-02 1.814965430000000e-01
            -6.119620180000000e-02 1.814667940000000e-01 5.533220790000000e-01 2.849396600000000e-01 8.372483340000000e-02 -4.479538760000000e-02 7.854885830000000e-02 -4.208600910000000e-02
            5.534319090000001e-01 2.871812110000000e-01 -6.134673240000000e-02 1.814922750000000e-01 7.854616590000001e-02 -4.209019950000000e-02 8.680506890000000e-02 -4.173141570000000e-02
183847373.0000000000 5.995974050000000e-02 -3.173500060000000e-02 6.584547570000000e-02 -3.583025980000000e-02 -1.463954290000000e-02 1.890044710000000e-01 6.074344780000001e-01 1.514309420000000e-01
            6.581840730000001e-02 -3.582524670000000e-02 5.779468710000000e-02 -3.388887130000000e-02 6.068227210000000e-01 1.492760310000000e-01 -1.477149280000000e-02 1.890727380000000e-01
            -1.462551660000000e-02 1.889945270000000e-01 6.068164560000000e-01 1.492993400000000e-01 6.635480169999999e-02 -3.937659230000000e-02 6.011748880000000e-02 -3.596180250000000e-02
            6.074325610000000e-01 1.514176600000000e-01 -1.477275940000000e-02 1.890759810000000e-01 6.012125250000000e-02 -3.595578730000000e-02 6.941682080000000e-02 -3.630183450000000e-02
184346956.0000000000 4.559594630000000e-02 -1.774413520000000e-02 5.114511850000000e-02 -2.339500210000000e-02 3.167453620000000e-02 1.838587420000000e-01 6.282591340000000e-01 5.199258000000000e-03
            5.116409010000000e-02 -2.339362290000000e-02 4.344448780000000e-02 -1.991872680000000e-02 6.271530890000000e-01 3.255528270000000e-03 3.154614070000000e-02 1.839468220000000e-01
            3.166969990000000e-02 1.838525580000000e-01 6.271712380000000e-01 3.259132700000000e-03 5.341961930000000e-02 -2.643560470000000e-02 4.644762740000000e-02 -2.195148730000000e-02
            6.282746710000000e-01 5.192769340000000e-03 3.154359760000000e-02 1.839574970000000e-01 4.643418150000000e-02 -2.195231730000000e-02 5.648336200000000e-02 -2.334281520000000e-02
184846539.0000000000 3.930731570000000e-02 1.476136670000000e-03 4.399709290000000e-02 -5.528789190000000e-03 7.377011420000000e-02 1.670970830000000e-01 6.133426480000000e-01 -1.430019800000000e-01
            4.399849480000000e-02 -5.541901850000000e-03 3.716570500000000e-02 -7.199375020000000e-04 6.118207030000000e-01 -1.446304580000000e-01 7.367066360000001e-02 1.672146350000000e-01
            7.377131490000000e-02 1.670893660000000e-01 6.118305200000000e-01 -1.446246790000000e-01 4.813202820000000e-02 -8.929178850000000e-03 4.079427700000000e-02 -3.149431140000000e-03
            6.133408760000000e-01 -1.430021280000000e-01 7.366616530000000e-02 1.672189220000000e-01 4.079079230000000e-02 -3.136288920000000e-03 5.116358640000000e-02 -5.786785240000000e-03
185346122.0000000000 4.264245240000000e-02 2.148892710000000e-02 4.602837140000000e-02 1.349230890000000e-02 1.086958680000000e-01 1.412268460000000e-01 5.627589260000000e-01 -2.837392440000000e-01
            4.603315220000000e-02 1.346931250000000e-02 4.051217040000000e-02 1.930087730000000e-02 5.609157860000000e-01 -2.849644990000000e-01 1.086362380000000e-01 1.413606370000000e-01
            1.086788570000000e-01 1.412377670000000e-01 5.609250440000000e-01 -2.849348460000000e-01 5.177100350000000e-02 8.911288300000000e-03 4.454831030000000e-02 1.604741990000000e-02
            5.627663670000000e-01 -2.837408180000000e-01 1.086267460000000e-01 1.413524330000000e-01 4.454277160000000e-02 1.604437990000000e-02 5.481554280000000e-02 1.206972570000000e-02
185845705.0000000000 5.483377660000000e-02 3.760713760000000e-02 5.660565070000000e-02 2.912781900000000e-02 1.350210580000000e-01 1.093276660000000e-01 4.796685860000000e-01 -4.078233470000000e-01
            5.661900790000000e-02 2.913016040000000e-02 5.271039200000000e-02 3.540570800000000e-02 4.776052300000000e-01 -4.085504140000000e-01 1.350125740000000e-01 1.094791730000000e-01
            1.350211520000000e-01 1.093289390000000e-01 4.776191950000000e-01 -4.085700690000000e-01 6.336281350000000e-02 2.278375550000000e-02 5.672611070000000e-02 3.109288720000000e-02
            4.796751330000000e-01 -4.078146230000000e-01 1.350019070000000e-01 1.094639950000000e-01 5.671855830000000e-02 3.110259380000000e-02 6.640224610000001e-02 2.591830750000000e-02
186345288.0000000000 7.281551360000001e-02 4.625398950000000e-02 7.297680180000000e-02 3.794132970000000e-02 1.527076820000000e-01 7.417794580000001e-02 3.698600360000000e-01 -5.076862470000000e-01
            7.297179870000001e-02 3.792806110000000e-02 7.066013490000000e-02 4.402355510000000e-02 3.676882320000000e-01 -5.079025700000001e-01 1.527187200000000e-01 7.431507040000000e-02
            1.526989120000000e-01 7.417194620000001e-02 3.676989630000000e-01 -5.079016650000000e-01 7.991100980000000e-02 2.940015000000000e-02 7.423256580000000e-02 3.862207860000000e-02
            3.698647630000000e-01 -5.076885130000000e-01 1.527226370000000e-01 7.430355680000000e-02 7.422918770000000e-02 3.864088900000000e-02 8.297155830000000e-02 3.256981060000000e-02
186844871.0000000000 9.241297250000000e-02 4.577331250000000e-02 9.116932530000001e-02 3.819885250000000e-02 1.624241790000000e-01 3.758426720000000e-02 2.407155650000000e-01 -5.780788529999999e-01
            9.118250540000000e-02 3.819826680000000e-02 9.026468960000000e-02 4.353657520000000e-02 2.385652400000000e-01 -5.777845920000000e-01 1.624347550000000e-01 3.771478070000000e-02
            1.624010670000000e-01 3.759868610000000e-02 2.385647420000000e-01 -5.777895630000000e-01 9.746468420000000e-02 2.750690380000000e-02 9.291993040000000e-02 3.724901830000000e-02
            2.406947070000000e-01 -5.780777790000000e-01 1.624492160000000e-01 3.772428890000000e-02 9.292304649999999e-02 3.724977630000000e-02 1.005233990000000e-01 3.065908560000000e-02
187344454.0000000000 1.093635630000000e-01 3.670334780000000e-02 1.071686030000000e-01 3.030262720000000e-02 1.646611310000000e-01 6.059147680000000e-04 1.001726250000000e-01 -6.162163360000000e-01
            1.071726000000000e-01 3.030493830000000e-02 1.071833360000000e-01 3.448027220000000e-02 9.818118430000000e-02 -6.154533270000000e-01 1.647218050000000e-01 7.317779370000000e-04
            1.646519480000000e-01 6.070095290000000e-04 9.816552030000000e-02 -6.154616080000000e-01 1.120028510000000e-01 1.776402170000000e-02 1.086486310000000e-01 2.756235210000000e-02
            1.001777830000000e-01 -6.162254500000000e-01 1.647142950000000e-01 7.192909760000000e-04 1.086650600000000e-01 2.757762860000000e-02 1.150540300000000e-01 2.094591940000000e-02
187844037.0000000000 1.202383830000000e-01 2.126175750000000e-02 1.176960720000000e-01 1.625751270000000e-02 1.595462760000000e-01 -3.603410200000000e-02 -4.411137410000000e-02 -6.213692910000000e-01
            1.176892520000000e-01 1.625639160000000e-02 1.180757740000000e-01 1.904610540000000e-02 -4.586311480000000e-02 -6.201849860000000e-01 1.596316600000000e-01 -3.594028380000000e-02
            1.595543820000000e-01 -3.604091520000000e-02 -4.587182260000000e-02 -6.201825110000000e-01 1.204673950000000e-01 2.494259440000000e-03 1.181638160000000e-01 1.193694320000000e-02
            -4.412993750000000e-02 -6.213790100000000e-01 1.596447210000000e-01 -3.595210970000000e-02 1.181575010000000e-01 1.193565360000000e-02 1.235410710000000e-01 5.660018870000000e-03
188343620.0000000000 1.230112980000000e-01 2.865077740000000e-03 1.207217120000000e-01 -7.815518140000000e-04 1.467120120000000e-01 -7.132065109999999e-02 -1.851309440000000e-01 -5.942290210000000e-01
            1.207227720000000e-01 -7.791919300000000e-04 1.208463910000000e-01 6.544838140000000e-04 -1.865614230000000e-01 -5.926802260000000e-01 1.468331290000000e-01 -7.124443749999999e-02
            1.467225600000000e-01 -7.133522530000000e-02 -1.865766340000000e-01 -5.926823919999999e-01 1.210981230000000e-01 -1.500928930000000e-02 1.195359910000000e-01 -6.239814710000000e-03
            -1.851286160000000e-01 -5.942410540000000e-01 1.468359350000000e-01 -7.126798270000000e-02 1.195283240000000e-01 -6.243383330000000e-03 1.241834920000000e-01 -1.187285330000000e-02
188843203.0000000000 1.172621320000000e-01 -1.465900720000000e-02 1.157437200000000e-01 -1.721846010000000e-02 1.258191170000000e-01 -1.035558170000000e-01 -3.164781600000000e-01 -5.364471620000000e-01
            1.157580010000000e-01 -1.721589400000000e-02 1.150890840000000e-01 -1.685223260000000e-02 -3.175159100000000e-01 -5.345935410000000e-01 1.259563280000000e-01 -1.035107050000000e-01
            1.258456230000000e-01 -1.035484320000000e-01 -3.175029820000000e-01 -5.346028860000001e-01 1.137180550000000e-01 -3.113027880000000e-02 1.124727050000000e-01 -2.317602680000000e-02
            -3.164847600000000e-01 -5.364418600000000e-01 1.259583680000000e-01 -1.035092870000000e-01 1.124762180000000e-01 -2.317478570000000e-02 1.167840700000000e-01 -2.800818880000000e-02
189342786.0000000000 1.041779240000000e-01 -2.764134700000000e-02 1.038501650000000e-01 -2.957327920000000e-02 9.711073310000000e-02 -1.304173580000000e-01 -4.320987100000000e-01 -4.504846770000000e-01
            1.038515750000000e-01 -2.957373930000000e-02 1.020413570000000e-01 -2.984694550000000e-02 -4.326663020000000e-01 -4.484707330000000e-01 9.722570170000000e-02 -1.303890750000000e-01
            9.709609600000001e-02 -1.304219550000000e-01 -4.326545160000000e-01 -4.484790200000000e-01 9.966134929999999e-02 -4.244137800000000e-02 9.830667880000001e-02 -3.521244390000000e-02
            -4.320781620000000e-01 -4.504810390000000e-01 9.722897620000000e-02 -1.303960960000000e-01 9.829853910000000e-02 -3.519976880000000e-02 1.026993850000000e-01 -3.931503050000000e-02
189842369.0000000000 8.648691570000000e-02 -3.317529750000000e-02 8.752933970000000e-02 -3.508474390000000e-02 6.188873660000000e-02 -1.493041660000000e-01 -5.260653540000000e-01 -3.397762490000000e-01
            8.753657290000000e-02 -3.507834990000000e-02 8.436695830000000e-02 -3.537888820000000e-02 -5.261602670000000e-01 -3.377061420000000e-01 6.199908840000000e-02 -1.493075860000000e-01
            6.188462230000000e-02 -1.492983480000000e-01 -5.261762730000000e-01 -3.376852560000000e-01 8.166210430000000e-02 -4.627920120000000e-02 7.986344360000000e-02 -3.953864250000000e-02
            -5.260623230000000e-01 -3.397706750000000e-01 6.200799160000000e-02 -1.493171460000000e-01 7.986117530000000e-02 -3.955467950000000e-02 8.466655100000001e-02 -4.314381640000000e-02
190341952.0000000000 6.808943550000000e-02 -2.983544400000000e-02 7.041729300000001e-02 -3.226406500000000e-02 2.273031700000000e-02 -1.581072180000000e-01 -5.927669410000000e-01 -2.090781140000000e-01
            7.041285550000000e-02 -3.225593150000000e-02 6.597822640000001e-02 -3.203389610000000e-02 -5.923708470000000e-01 -2.070490250000000e-01 2.284143770000000e-02 -1.581688170000000e-01
            2.273069290000000e-02 -1.581132280000000e-01 -5.923876270000000e-01 -2.070411680000000e-01 6.352082960000000e-02 -4.144722730000000e-02 6.109753720000000e-02 -3.481258090000000e-02
            -5.927599990000000e-01 -2.090823220000000e-01 2.285178530000000e-02 -1.581591080000000e-01 6.108477080000000e-02 -3.481940560000000e-02 6.652087160000000e-02 -3.831533850000000e-02
190841535.0000000000 5.323643710000000e-02 -1.808901780000000e-02 5.656120140000000e-02 -2.154834530000000e-02 -1.686027410000000e-02 -1.559545360000000e-01 -6.272834590000000e-01 -6.490733740000000e-02
            5.655815120000000e-02 -2.155090030000000e-02 5.113007530000000e-02 -2.028995790000000e-02 -6.264196460000000e-01 -6.303051749999999e-02 -1.676635350000000e-02 -1.559993960000000e-01
            -1.686272130000000e-02 -1.559420190000000e-01 -6.264268540000000e-01 -6.300709850000000e-02 4.937375690000000e-02 -2.865035500000000e-02 4.629808120000000e-02 -2.170443590000000e-02
            -6.272728660000000e-01 -6.490491869999999e-02 -1.675890440000000e-02 -1.560171560000000e-01 4.630817340000000e-02 -2.170005740000000e-02 5.233934920000000e-02 -2.550894040000000e-02
191341118.0000000000 4.560094850000000e-02 -5.309687320000000e-04 4.947416900000000e-02 -5.384645900000000e-03 -5.324403940000000e-02 -1.434745350000000e-01 -6.262925380000000e-01 8.455798060000000e-02
            4.946681800000000e-02 -5.354473460000000e-03 4.351079240000000e-02 -2.737480910000000e-03 -6.250181370000000e-01 8.619119620000000e-02 -5.318338560000000e-02 -1.435708940000000e-01
            -5.323731400000000e-02 -1.434748760000000e-01 -6.250248090000000e-01 8.619538320000000e-02 4.263973290000000e-02 -1.062366400000000e-02 3.915418350000000e-02 -2.890243830000000e-03
            -6.262882640000000e-01 8.454846550000000e-02 -5.316523670000000e-02 -1.435637120000000e-01 3.913469050000000e-02 -2.893504390000000e-03 4.560577720000000e-02 -7.447643720000000e-03
191840701.0000000000 4.716366390000000e-02 1.871066230000000e-02 5.106765040000000e-02 1.232222580000000e-02 -8.362148240000000e-02 -1.228830500000000e-01 -5.889955600000000e-01 2.298638860000000e-01
            5.106822840000000e-02 1.231396390000000e-02 4.507163920000000e-02 1.647558340000000e-02 -5.874071990000000e-01 2.311443170000000e-01 -8.358096430000000e-02 -1.229817740000000e-01
            -8.362609890000000e-02 -1.228867570000000e-01 -5.874176250000001e-01 2.311456730000000e-01 4.503490480000000e-02 8.520889780000001e-03 4.149867980000000e-02 1.730250060000000e-02
            -5.890050860000000e-01 2.298718460000000e-01 -8.358972780000000e-02 -1.229922500000000e-01 4.151383400000000e-02 1.729928590000000e-02 4.799746410000000e-02 1.171813630000000e-02
192340284.0000000000 5.757362390000000e-02 3.501683100000000e-02 6.098035880000000e-02 2.713931590000000e-02 -1.066421090000000e-01 -9.703099740000000e-02 -5.176840140000000e-01 3.616250670000000e-01
            6.097408840000000e-02 2.714822360000000e-02 5.548157800000000e-02 3.275936320000000e-02 -5.158380540000000e-01 3.624853670000000e-01 -1.066053410000000e-01 -9.712404410000000e-02
            -1.066334340000000e-01 -9.701655340000000e-02 -5.158510480000000e-01 3.624956300000000e-01 5.597622110000000e-02 2.425372690000000e-02 5.293095810000000e-02 3.418904890000000e-02
            -5.176930220000000e-01 3.616382630000000e-01 -1.066124160000000e-01 -9.713307200000000e-02 5.293208340000000e-02 3.419274800000000e-02 5.894957020000000e-02 2.747230690000000e-02
192839867.0000000000 7.429050830000000e-02 4.463073770000000e-02 7.673771829999999e-02 3.550536530000000e-02 -1.222805930000000e-01 -6.846378320000000e-02 -4.173837040000000e-01 4.716589780000000e-01
            7.674423190000000e-02 3.551367000000000e-02 7.218901060000001e-02 4.235597480000000e-02 -4.154164950000000e-01 4.720659200000000e-01 -1.222880150000000e-01 -6.855450930000000e-02
            -1.223011190000000e-01 -6.844929320000000e-02 -4.154133700000000e-01 4.720486830000000e-01 7.271930359999999e-02 3.300826710000000e-02 7.070878610000000e-02 4.402259200000000e-02
            -4.173833260000000e-01 4.716556500000000e-01 -1.222852030000000e-01 -6.854748360000000e-02 7.069619370000001e-02 4.401987430000000e-02 7.569466730000000e-02 3.623549310000000e-02
193339450.0000000000 9.338136730000000e-02 4.557443320000000e-02 9.458663320000001e-02 3.555999510000000e-02 -1.313642130000000e-01 -3.883359870000000e-02 -2.950467210000000e-01 5.540138480000000e-01
            9.458665780000000e-02 3.556278230000000e-02 9.127272300000000e-02 4.328925620000000e-02 -2.930365930000000e-01 5.539556910000000e-01 -1.313840040000000e-01 -3.893143690000000e-02
            -1.313592600000000e-01 -3.883577780000000e-02 -2.930544940000000e-01 5.539513930000000e-01 9.132028100000000e-02 3.309476320000000e-02 9.081155890000001e-02 4.481207980000000e-02
            -2.950442440000000e-01 5.540236780000000e-01 -1.313848030000000e-01 -3.892806610000000e-02 9.080503230000000e-02 4.481718240000000e-02 9.430243440000000e-02 3.632919930000000e-02
193839033.0000000000 1.106852060000000e-01 3.794005350000000e-02 1.104863790000000e-01 2.745937070000000e-02 -1.345819300000000e-01 -8.949833210000001e-03 -1.583711810000000e-01 6.051904980000000e-01
            1.105034190000000e-01 2.744019340000000e-02 1.085823100000000e-01 3.565557470000000e-02 -1.564596190000000e-01 6.046795930000000e-01 -1.346323310000000e-01 -9.034839730000001e-03
            -1.345778540000000e-01 -8.949672949999999e-03 -1.564525740000000e-01 6.046782230000000e-01 1.076157280000000e-01 2.484310540000000e-02 1.089665710000000e-01 3.672116410000000e-02
            -1.583655760000000e-01 6.052031050000000e-01 -1.346158910000000e-01 -9.036155509999999e-03 1.089627080000000e-01 3.671282680000000e-02 1.106016510000000e-01 2.806917170000000e-02
194338616.0000000000 1.226790590000000e-01 2.359888300000000e-02 1.210993950000000e-01 1.302063990000000e-02 -1.321448270000000e-01 2.086113550000000e-02 -1.496512210000000e-02 6.237736380000000e-01
            1.211085780000000e-01 1.302899420000000e-02 1.205628770000000e-01 2.132475880000000e-02 -1.324218850000000e-02 6.228323040000000e-01 -1.321901900000000e-01 2.080102550000000e-02
            -1.321366140000000e-01 2.086931080000000e-02 -1.324191750000000e-02 6.228278180000000e-01 1.182703870000000e-01 1.028702890000000e-02 1.215989250000000e-01 2.168454910000000e-02
            -1.495489530000000e-02 6.237707800000000e-01 -1.321828220000000e-01 2.079031630000000e-02 1.215915520000000e-01 2.167487020000000e-02 1.212729870000000e-01 1.351124810000000e-02
194838198.0000000000 1.270992440000000e-01 5.625863340000000e-03 1.242789170000000e-01 -4.719095900000000e-03 -1.236457910000000e-01 5.009277670000000e-02 1.280835360000000e-01 6.098302110000000e-01
            1.242832990000000e-01 -4.716919390000000e-03 1.249783760000000e-01 3.360020220000000e-03 1.295192740000000e-01 6.085254930000000e-01 -1.237247340000000e-01 5.003255410000000e-02
            -1.236399110000000e-01 5.008057390000000e-02 1.295222460000000e-01 6.085357320000000e-01 1.212277380000000e-01 -7.364912770000000e-03 1.263685830000000e-01 2.831876050000000e-03
            1.280799440000000e-01 6.098292220000000e-01 -1.237205960000000e-01 5.002633190000000e-02 1.263550290000000e-01 2.834521460000000e-03 1.242209770000000e-01 -4.160902970000000e-03
195337781.0000000000 1.231759020000000e-01 -1.231483660000000e-02 1.192943110000000e-01 -2.223291120000000e-02 -1.085390700000000e-01 7.752951740000000e-02 2.642304010000000e-01 5.645655260000000e-01
            1.192833960000000e-01 -2.224251460000000e-02 1.210633030000000e-01 -1.458605510000000e-02 2.653332570000000e-01 5.629660370000000e-01 -1.086415380000000e-01 7.748432160000000e-02
            -1.085465550000000e-01 7.750758750000000e-02 2.653212170000000e-01 5.629528100000000e-01 1.159410430000000e-01 -2.449346090000000e-02 1.224602940000000e-01 -1.607378370000000e-02
            2.642206630000000e-01 5.645513530000000e-01 -1.086348510000000e-01 7.745839870000000e-02 1.224511440000000e-01 -1.605356270000000e-02 1.189176310000000e-01 -2.129757580000000e-02
195837364.0000000000 1.117320050000000e-01 -2.659983610000000e-02 1.069759130000000e-01 -3.596427650000000e-02 -8.665026000000001e-02 1.012566670000000e-01 3.872649300000000e-01 4.898960680000000e-01
            1.069885120000000e-01 -3.595683690000000e-02 1.096337800000000e-01 -2.884227060000000e-02 3.879823480000000e-01 4.881142010000000e-01 -8.674130640000000e-02 1.012336980000000e-01
            -8.664199160000000e-02 1.012466200000000e-01 3.879935960000000e-01 4.881032800000000e-01 1.034099650000000e-01 -3.752284320000000e-02 1.106994810000000e-01 -3.129274130000000e-02
            3.872679900000000e-01 4.899071560000000e-01 -8.673693050000000e-02 1.012328100000000e-01 1.107131210000000e-01 -3.129816070000000e-02 1.063899450000000e-01 -3.431982130000000e-02
196336947.0000000000 9.509715310000000e-02 -3.416684460000000e-02 8.966073060000000e-02 -4.297124690000000e-02 -5.869017670000000e-02 1.189396480000000e-01 4.911431030000000e-01 3.887525430000000e-01
            8.966041480000000e-02 -4.296117370000000e-02 9.302662420000000e-02 -3.641480400000000e-02 4.914283740000000e-01 3.868882290000000e-01 -5.877768830000000e-02 1.189519230000000e-01
            -5.869026530000000e-02 1.189380570000000e-01 4.914218400000000e-01 3.868572470000000e-01 8.608811510000000e-02 -4.357463370000000e-02 9.339718560000000e-02 -3.971602900000000e-02
            4.911453660000000e-01 3.887812780000000e-01 -5.878055890000000e-02 1.189455750000000e-01 9.340703010000000e-02 -3.972079510000000e-02 8.903434640000001e-02 -4.037210810000000e-02
196836530.0000000000 7.681367370000000e-02 -3.327034170000000e-02 7.080331710000000e-02 -4.150757760000000e-02 -2.660672400000000e-02 1.284394660000000e-01 5.699463400000000e-01 2.653331040000000e-01
            7.079531330000000e-02 -4.150693310000000e-02 7.473948200000000e-02 -3.552142950000000e-02 5.697646440000000e-01 2.634126760000000e-01 -2.668747080000000e-02 1.284594190000000e-01
            -2.661113640000000e-02 1.284342820000000e-01 5.697740000000000e-01 2.634227710000000e-01 6.757799320000001e-02 -4.102987330000000e-02 7.414429650000000e-02 -3.941702510000000e-02
            5.699402690000001e-01 2.653219770000000e-01 -2.670321560000000e-02 1.284613790000000e-01 7.414153730000000e-02 -3.943236610000000e-02 7.053170559999999e-02 -3.782811080000000e-02
197336113.0000000000 6.104360470000000e-02 -2.388883580000000e-02 5.447578940000000e-02 -3.159515010000000e-02 6.596780050000000e-03 1.285319580000000e-01 6.182169630000000e-01 1.254163310000000e-01
            5.448289640000000e-02 -3.160831340000000e-02 5.897529920000000e-02 -2.613907490000000e-02 6.176173490000000e-01 1.235872520000000e-01 6.530208370000000e-03 1.285778040000000e-01
            6.608796210000000e-03 1.285277470000000e-01 6.176225470000000e-01 1.235943680000000e-01 5.202891350000000e-02 -3.007099560000000e-02 5.716135530000000e-02 -3.034785830000000e-02
            6.182371350000000e-01 1.254019980000000e-01 6.520428780000000e-03 1.285753820000000e-01 5.717187650000000e-02 -3.034201450000000e-02 5.494294810000000e-02 -2.686585260000000e-02
197835696.0000000000 5.158038040000000e-02 -8.112208960000001e-03 4.448351060000000e-02 -1.529181120000000e-02 3.760400220000000e-02 1.194718300000000e-01 6.319265050000000e-01 -2.329864010000000e-02
            4.449307170000000e-02 -1.527842870000000e-02 4.952823860000000e-02 -1.037783460000000e-02 6.309174710000000e-01 -2.490312950000000e-02 3.755641970000000e-02 1.195432040000000e-01
            3.760529980000000e-02 1.194851900000000e-01 6.309159470000000e-01 -2.489480770000000e-02 4.316842600000000e-02 -1.292891900000000e-02 4.639124170000000e-02 -1.447168850000000e-02
            6.319249030000000e-01 -2.329147910000000e-02 3.754782150000000e-02 1.195456350000000e-01 4.637764240000000e-02 -1.447403680000000e-02 4.607309360000000e-02 -9.695968200000000e-03
198335279.0000000000 5.081384910000000e-02 1.028721440000000e-02 4.319168860000000e-02 3.699118420000000e-03 6.363454790000000e-02 1.030601610000000e-01 6.091955290000000e-01 -1.716204580000000e-01
            4.318615290000000e-02 3.714435700000000e-03 4.876377150000000e-02 8.007238450000001e-03 6.078434630000000e-01 -1.729399210000000e-01 6.358738060000001e-02 1.031245970000000e-01
            6.362241690000001e-02 1.030625070000000e-01 6.078452990000000e-01 -1.729435190000000e-01 4.326838020000000e-02 6.525949540000000e-03 4.431519930000000e-02 4.465692720000000e-03
            6.092041380000000e-01 -1.716165720000000e-01 6.359847389999999e-02 1.031275090000000e-01 4.431715900000000e-02 4.472901710000000e-03 4.616172840000000e-02 9.790696480000000e-03
198834862.0000000000 5.892509460000000e-02 2.676818410000000e-02 5.078063520000000e-02 2.088899330000000e-02 8.317711130000000e-02 8.188295040000000e-02 5.511893839999999e-01 -3.099922060000000e-01
            5.076962110000000e-02 2.090457680000000e-02 5.688513050000000e-02 2.448665250000000e-02 5.495825220000000e-01 -3.109431000000000e-01 8.317139849999999e-02 8.197525490000000e-02
            8.317989360000000e-02 8.189947080000000e-02 5.495780740000000e-01 -3.109420810000000e-01 5.238493220000000e-02 2.373780500000000e-02 5.130224280000000e-02 2.191949860000000e-02
            5.511738690000000e-01 -3.099935440000000e-01 8.316033750000000e-02 8.195214850000000e-02 5.130783730000000e-02 2.192808450000000e-02 5.527341340000000e-02 2.702556890000000e-02
199334445.0000000000 7.387085690000000e-02 3.736968080000000e-02 6.523707780000000e-02 3.236527360000000e-02 9.620612560000000e-02 5.849317090000000e-02 4.619804040000000e-01 -4.296710250000000e-01
            6.523924460000000e-02 3.236056250000000e-02 7.183049750000001e-02 3.507553840000000e-02 4.602067620000000e-01 -4.302329130000000e-01 9.620611340000000e-02 5.855845520000000e-02
            9.622234980000000e-02 5.849382060000000e-02 4.602119970000000e-01 -4.302208180000000e-01 6.827203599999999e-02 3.476645210000000e-02 6.540957590000000e-02 3.385589710000000e-02
            4.619769290000000e-01 -4.296767130000000e-01 9.620356230000000e-02 5.856156530000000e-02 6.540921650000001e-02 3.385784200000000e-02 7.119991630000000e-02 3.804645630000000e-02
199834028.0000000000 9.197053610000000e-02 3.972963200000000e-02 8.299515759999999e-02 3.573174220000000e-02 1.035623770000000e-01 3.458641870000000e-02 3.478717730000000e-01 -5.239162580000000e-01
            8.299011320000001e-02 3.572548300000000e-02 8.990858000000000e-02 3.741958560000000e-02 3.460232370000000e-01 -5.240414190000000e-01 1.035660940000000e-01 3.464906050000000e-02
            1.035606680000000e-01 3.456375070000000e-02 3.460315650000000e-01 -5.240248920000000e-01 8.723255800000000e-02 3.726783500000000e-02 8.307458950000000e-02 3.779058600000000e-02
            3.478548420000000e-01 -5.238994670000000e-01 1.035548440000000e-01 3.464381210000000e-02 8.307950180000000e-02 3.778233060000000e-02 9.015750470000000e-02 4.057555010000000e-02
200333611.0000000000 1.090541930000000e-01 3.348397520000000e-02 9.995106530000000e-02 3.060389570000000e-02 1.061802420000000e-01 1.086424720000000e-02 2.162575010000000e-01 -5.882619850000000e-01
            9.995449789999999e-02 3.059280250000000e-02 1.069885330000000e-01 3.116497060000000e-02 2.144585340000000e-01 -5.879549960000000e-01 1.062104240000000e-01 1.094628920000000e-02
            1.061853030000000e-01 1.086279620000000e-02 2.144596890000000e-01 -5.879655260000000e-01 1.050159330000000e-01 3.105400990000000e-02 1.002093440000000e-01 3.324644250000000e-02
            2.162622170000000e-01 -5.882661200000000e-01 1.062267910000000e-01 1.093022810000000e-02 1.001975020000000e-01 3.324906570000000e-02 1.079435590000000e-01 3.434530420000000e-02
200833194.0000000000 1.214388660000000e-01 2.019091730000000e-02 1.124789560000000e-01 1.847404940000000e-02 1.045498200000000e-01 -1.253154460000000e-02 7.474698460000000e-02 -6.205417670000000e-01
            1.124758930000000e-01 1.846517610000000e-02 1.193621940000000e-01 1.789159850000000e-02 7.308312150000000e-02 -6.198277420000000e-01 1.045953910000000e-01 -1.246496900000000e-02
            1.045556470000000e-01 -1.252775550000000e-02 7.308295920000001e-02 -6.198381350000000e-01 1.179481380000000e-01 1.773429610000000e-02 1.131713350000000e-01 2.160304080000000e-02
            7.475545140000001e-02 -6.205254250000000e-01 1.045974150000000e-01 -1.248299280000000e-02 1.131740610000000e-01 2.160547030000000e-02 1.208738670000000e-01 2.102671050000000e-02
201332777.0000000000 1.265680110000000e-01 2.739474230000000e-03 1.180589090000000e-01 2.078893930000000e-03 9.848044800000000e-02 -3.546200960000000e-02 -6.943096400000000e-02 -6.201528450000000e-01
            1.180647540000000e-01 2.083890440000000e-03 1.245160910000000e-01 4.556024220000000e-04 -7.086170600000000e-02 -6.190948880000000e-01 9.853556550000001e-02 -3.539234320000000e-02
            9.849201060000000e-02 -3.546332580000000e-02 -7.084552140000000e-02 -6.191039210000000e-01 1.235355650000000e-01 2.788325330000000e-04 1.194103420000000e-01 5.579559690000000e-03
            -6.943097400000001e-02 -6.201568770000000e-01 9.853694920000000e-02 -3.541053080000000e-02 1.194064630000000e-01 5.582378540000000e-03 1.264565040000000e-01 3.545608060000000e-03
201832360.0000000000 1.234491830000000e-01 -1.529461390000000e-02 1.156202860000000e-01 -1.503510030000000e-02 8.739584240000001e-02 -5.727244700000000e-02 -2.095344800000000e-01 -5.877245400000000e-01
            1.156093160000000e-01 -1.502607210000000e-02 1.213872140000000e-01 -1.757083380000000e-02 -2.106685460000000e-01 -5.863730200000000e-01 8.745822339999999e-02 -5.723924410000000e-02
            8.739458260000001e-02 -5.728050560000000e-02 -2.106848290000000e-01 -5.863779400000000e-01 1.208097570000000e-01 -1.773937750000000e-02 1.177493850000000e-01 -1.140813430000000e-02
            -2.095262610000000e-01 -5.877302550000000e-01 8.746970179999999e-02 -5.725101030000000e-02 1.177494530000000e-01 -1.142639730000000e-02 1.237132260000000e-01 -1.447771950000000e-02
202331943.0000000000 1.125778040000000e-01 -3.023614140000000e-02 1.055690830000000e-01 -2.929422440000000e-02 7.088877160000000e-02 -7.654316970000000e-02 -3.391837080000000e-01 -5.247789930000000e-01
            1.055747550000000e-01 -2.929451900000000e-02 1.105296470000000e-01 -3.250332540000000e-02 -3.399745600000000e-01 -5.232069450000000e-01 7.096491230000000e-02 -7.654238550000000e-02
            7.088897719999999e-02 -7.655356510000000e-02 -3.399754640000000e-01 -5.232094590000000e-01 1.103445920000000e-01 -3.260753690000000e-02 1.086060280000000e-01 -2.581080800000000e-02
            -3.391799370000000e-01 -5.247758920000000e-01 7.096061280000000e-02 -7.653773600000000e-02 1.086020610000000e-01 -2.580917560000000e-02 1.132518500000000e-01 -2.934523890000000e-02
202831526.0000000000 9.601636490000000e-02 -3.885508020000000e-02 8.991938080000000e-02 -3.758856320000000e-02 4.928670100000000e-02 -9.136082199999999e-02 -4.520508560000000e-01 -4.337250880000000e-01
            8.992002210000000e-02 -3.758406030000000e-02 9.397116500000000e-02 -4.114955560000000e-02 -4.524825720000000e-01 -4.320183020000000e-01 4.934785190000000e-02 -9.136339450000000e-02
            4.927675610000000e-02 -9.135045100000000e-02 -4.524678480000000e-01 -4.320250580000000e-01 9.425557100000000e-02 -4.120709730000000e-02 9.383826870000000e-02 -3.450501490000000e-02
            -4.520623820000000e-01 -4.337297230000000e-01 4.935282840000000e-02 -9.136396060000000e-02 9.384487540000000e-02 -3.451535200000000e-02 9.712661780000000e-02 -3.795048550000000e-02
203331109.0000000000 7.709602590000000e-02 -3.918155160000000e-02 7.187269370000000e-02 -3.781528650000000e-02 2.396730860000000e-02 -9.970126560000001e-02 -5.419789260000000e-01 -3.182505610000000e-01
            7.185742300000000e-02 -3.781624150000000e-02 7.510456430000000e-02 -4.147537050000000e-02 -5.419995300000000e-01 -3.164960710000000e-01 2.403213530000000e-02 -9.971586200000000e-02
            2.395520220000000e-02 -9.969853700000000e-02 -5.420030710000000e-01 -3.165086040000000e-01 7.591072150000000e-02 -4.154577920000000e-02 7.661401790000000e-02 -3.542440820000000e-02
            -5.419883340000000e-01 -3.182594020000000e-01 2.403850800000000e-02 -9.973517370000000e-02 7.660619380000000e-02 -3.542736490000000e-02 7.876919250000000e-02 -3.827995780000000e-02
203830692.0000000000 5.996331620000000e-02 -3.079339280000000e-02 5.541976090000000e-02 -2.956453610000000e-02 -2.622584710000000e-03 -1.003399180000000e-01 -6.031498370000000e-01 -1.836329650000000e-01
            5.539900400000000e-02 -2.956342030000000e-02 5.795621840000000e-02 -3.307481350000000e-02 -6.027590680000000e-01 -1.819609080000000e-01 -2.571082100000000e-03 -1.003703530000000e-01
            -2.650212660000000e-03 -1.003513160000000e-01 -6.027704149999999e-01 -1.819721580000000e-01 5.932872620000000e-02 -3.330891840000000e-02 6.081078370000000e-02 -2.814612120000000e-02
            -6.031510770000000e-01 -1.836423060000000e-01 -2.579956510000000e-03 -1.003824240000000e-01 6.080965030000000e-02 -2.813214250000000e-02 6.217702550000000e-02 -3.004553830000000e-02
204330275.0000000000 4.853350290000000e-02 -1.535816600000000e-02 4.444472850000000e-02 -1.440462370000000e-02 -2.756713460000000e-02 -9.328417170000000e-02 -6.308244610000000e-01 -3.710979840000000e-02
            4.443721310000000e-02 -1.439921190000000e-02 4.653339760000000e-02 -1.767232940000000e-02 -6.300456800000001e-01 -3.556567970000000e-02 -2.752040810000000e-02 -9.333282370000000e-02
            -2.755915720000000e-02 -9.328620970000000e-02 -6.300439780000000e-01 -3.556861660000000e-02 4.843333510000000e-02 -1.823124010000000e-02 5.023841610000000e-02 -1.414054670000000e-02
            -6.308388640000000e-01 -3.712084920000000e-02 -2.752543580000000e-02 -9.332386810000000e-02 5.023711410000000e-02 -1.413441770000000e-02 5.124220580000000e-02 -1.492346830000000e-02
204829858.0000000000 4.557863820000000e-02 3.604700200000000e-03 4.170904990000000e-02 4.270044780000000e-03 -4.828429670000000e-02 -7.997034770000000e-02 -6.223494220000000e-01 1.125071270000000e-01
            4.172024030000000e-02 4.269754930000000e-03 4.358344890000000e-02 1.294328760000000e-03 -6.212541230000000e-01 1.138134840000000e-01 -4.827445120000000e-02 -8.001845200000000e-02
            -4.829943740000000e-02 -7.997295740000000e-02 -6.212492250000000e-01 1.138327670000000e-01 4.588110390000000e-02 2.769901120000000e-04 4.756942720000000e-02 3.240109520000000e-03
            -6.223536380000000e-01 1.124990120000000e-01 -4.825843550000000e-02 -8.002428010000000e-02 4.756752840000000e-02 3.256550730000000e-03 4.869251920000000e-02 3.582349560000000e-03
205329441.0000000000 5.177869570000000e-02 2.164869160000000e-02 4.793129150000000e-02 2.213580860000000e-02 -6.337513240000001e-02 -6.276515019999999e-02 -5.778782440000000e-01 2.556458340000000e-01
            4.794595810000000e-02 2.214034420000000e-02 4.978040240000000e-02 1.932432910000000e-02 -5.764977190000000e-01 2.566612010000000e-01 -6.336433590000000e-02 -6.280296300000000e-02
            -6.338181410000000e-02 -6.276902020000000e-02 -5.765079390000000e-01 2.566571170000000e-01 5.230942800000000e-02 1.776002420000000e-02 5.353174140000000e-02 1.977495330000000e-02
            -5.778806500000000e-01 2.556553680000000e-01 -6.337476139999999e-02 -6.282036650000000e-02 5.352691860000000e-02 1.977987720000000e-02 5.512227560000000e-02 2.109513470000000e-02
205829024.0000000000 6.551922080000000e-02 3.456420660000000e-02 6.158362040000000e-02 3.507702270000000e-02 -7.277130720000000e-02 -4.409335170000000e-02 -5.005494940000000e-01 3.832694570000000e-01
            6.158611090000000e-02 3.507031950000000e-02 6.352540470000000e-02 3.222250010000000e-02 -4.989977970000000e-01 3.839046520000000e-01 -7.277013350000000e-02 -4.412428640000000e-02
            -7.277166480000000e-02 -4.407965650000000e-02 -4.989942040000000e-01 3.839059990000000e-01 6.606294270000000e-02 3.013443070000000e-02 6.654590220000001e-02 3.147815540000000e-02
            -5.005377330000000e-01 3.832493690000000e-01 -7.277458110000000e-02 -4.413215550000000e-02 6.653903660000000e-02 3.147297780000000e-02 6.889596589999999e-02 3.347237200000000e-02
206328607.0000000000 8.342262450000000e-02 3.955220850000000e-02 7.940766150000000e-02 4.031320830000000e-02 -7.743186660000000e-02 -2.557012980000000e-02 -3.959595790000000e-01 4.879185390000000e-01
            7.939628340000000e-02 4.030376390000000e-02 8.142843680000000e-02 3.721602850000000e-02 -3.943177720000000e-01 4.881711910000000e-01 -7.743663319999999e-02 -2.562013580000000e-02
            -7.741849110000000e-02 -2.556616630000000e-02 -3.943048940000000e-01 4.881657660000000e-01 8.379108560000000e-02 3.464708370000000e-02 8.339755170000000e-02 3.565178260000000e-02
            -3.959432880000000e-01 4.879137480000000e-01 -7.743812849999999e-02 -2.559472640000000e-02 8.341537970000000e-02 3.565450790000000e-02 8.662733180000000e-02 3.800168250000000e-02
206828190.0000000000 1.013210580000000e-01 3.583263240000000e-02 9.732526200000000e-02 3.702505530000000e-02 -7.850002260000000e-02 -7.868109789999999e-03 -2.710666820000000e-01 5.644412740000000e-01
            9.733846740000000e-02 3.702301580000000e-02 9.931899590000000e-02 3.347528430000000e-02 -2.694176400000000e-01 5.643102540000000e-01 -7.853226360000000e-02 -7.908672360000001e-03
            -7.849602579999999e-02 -7.868797860000000e-03 -2.694188670000000e-01 5.643180680000000e-01 1.014328540000000e-01 3.058807020000000e-02 1.001669360000000e-01 3.157315230000000e-02
            -2.710701080000000e-01 5.644535280000000e-01 -7.852613710000000e-02 -7.921122220000000e-03 1.001686970000000e-01 3.156788680000000e-02 1.042595060000000e-01 3.394295990000000e-02
207327773.0000000000 1.153956650000000e-01 2.454005490000000e-02 1.116912880000000e-01 2.624992090000000e-02 -7.671093480000001e-02 9.122218580000001e-03 -1.332712940000000e-01 6.098845000000001e-01
            1.116792040000000e-01 2.625650240000000e-02 1.133791810000000e-01 2.219060640000000e-02 -1.317263200000000e-01 6.093919740000000e-01 -7.674711760000000e-02 9.079830830000000e-03
            -7.671480120000000e-02 9.111595440000000e-03 -1.317294010000000e-01 6.093935110000001e-01 1.151471690000000e-01 1.912711230000000e-02 1.131501120000000e-01 2.033945460000000e-02
            -1.332667190000000e-01 6.098997810000000e-01 -7.675169810000000e-02 9.087764950000000e-03 1.131534190000000e-01 2.034132310000000e-02 1.179916970000000e-01 2.246642280000000e-02
207827356.0000000000 1.227843960000000e-01 8.243711750000000e-03 1.196328970000000e-01 1.050283550000000e-02 -7.203962010000001e-02 2.562985480000000e-02 1.018637330000000e-02 6.230182070000000e-01
            1.196456310000000e-01 1.051576520000000e-02 1.207780510000000e-01 5.893426310000000e-03 1.156339930000000e-02 6.221875970000000e-01 -7.207700870000000e-02 2.560131110000000e-02
            -7.204669349999999e-02 2.564282300000000e-02 1.156580750000000e-02 6.221779620000000e-01 1.222329340000000e-01 2.836559120000000e-03 1.196752720000000e-01 4.465348010000000e-03
            1.018694510000000e-02 6.230139110000000e-01 -7.208867060000000e-02 2.561315130000000e-02 1.196705120000000e-01 4.459965530000000e-03 1.250705310000000e-01 6.178973600000000e-03
208326939.0000000000 1.220809930000000e-01 -9.572129410000000e-03 1.197759790000000e-01 -6.925396970000000e-03 -6.398207820000000e-02 4.147890630000000e-02 1.524970120000000e-01 6.038575490000000e-01
            1.197731770000000e-01 -6.923490130000000e-03 1.200713990000000e-01 -1.190220490000000e-02 1.536508800000000e-01 6.027320490000000e-01 -6.402429050000000e-02 4.145496990000000e-02
            -6.397326730000000e-02 4.148381980000000e-02 1.536518480000000e-01 6.027421840000000e-01 1.212856650000000e-01 -1.483484200000000e-02 1.183975860000000e-01 -1.275689680000000e-02
            1.525145480000000e-01 6.038404610000000e-01 -6.402038720000000e-02 4.146354730000000e-02 1.184169310000000e-01 -1.275666090000000e-02 1.241171830000000e-01 -1.149183040000000e-02
208826522.0000000000 1.134403550000000e-01 -2.521095700000000e-02 1.121883280000000e-01 -2.248068990000000e-02 -5.193359570000000e-02 5.574182190000000e-02 2.871497200000000e-01 5.533886200000000e-01
            1.121775300000000e-01 -2.249124340000000e-02 1.114665370000000e-01 -2.753693610000000e-02 2.880002150000000e-01 5.520466710000000e-01 -5.197351980000000e-02 5.572427440000000e-02
            -5.194921980000000e-02 5.575288190000000e-02 2.880019950000000e-01 5.520621430000000e-01 1.125452590000000e-01 -3.026089490000000e-02 1.094909390000000e-01 -2.775867660000000e-02
            2.871471160000000e-01 5.534026359999999e-01 -5.198799570000000e-02 5.575583070000000e-02 1.095024510000000e-01 -2.775831210000000e-02 1.153820890000000e-01 -2.695438760000000e-02
209326105.0000000000 9.859609760000000e-02 -3.538672700000000e-02 9.842866120000000e-02 -3.291067190000000e-02 -3.588022320000000e-02 6.689658770000000e-02 4.077103710000000e-01 4.735706110000000e-01
            9.843013339999999e-02 -3.291409830000000e-02 9.660660760000001e-02 -3.769454660000000e-02 4.082306970000000e-01 4.720637690000000e-01 -3.591610230000000e-02 6.689301410000000e-02
            -3.586730130000000e-02 6.687933590000000e-02 4.082270670000000e-01 4.720806150000000e-01 9.770968870000001e-02 -4.019897440000000e-02 9.459652559999999e-02 -3.736297690000000e-02
            4.077018500000000e-01 4.735562480000000e-01 -3.591077590000000e-02 6.688020940000000e-02 9.460431580000001e-02 -3.735726780000000e-02 1.005275320000000e-01 -3.689591570000000e-02
209825688.0000000000 8.055290510000000e-02 -3.773298010000000e-02 8.139458550000001e-02 -3.591823330000000e-02 -1.670917290000000e-02 7.315762930000000e-02 5.077569130000000e-01 3.674486940000000e-01
            8.139205670000001e-02 -3.591575510000000e-02 7.856463780000000e-02 -4.004995040000000e-02 5.079178550000000e-01 3.658847920000000e-01 -1.673635280000000e-02 7.317412000000000e-02
            -1.668150520000000e-02 7.315300060000000e-02 5.079232310000000e-01 3.658940650000000e-01 7.981346960000001e-02 -4.236253490000000e-02 7.666871620000000e-02 -3.928017630000000e-02
            5.077716670000000e-01 3.674462190000000e-01 -1.673571050000000e-02 7.315431410000001e-02 7.668156000000000e-02 -3.927611330000000e-02 8.260260170000000e-02 -3.905660060000000e-02
210325271.0000000000 6.323995920000000e-02 -3.144971470000000e-02 6.486895210000000e-02 -3.065734220000000e-02 3.679411910000000e-03 7.327366140000000e-02 5.811287480000000e-01 2.397555350000000e-01
            6.486839910000000e-02 -3.065534640000000e-02 6.127132420000000e-02 -3.378339100000000e-02 5.809253380000000e-01 2.382008730000000e-01 3.625413150000000e-03 7.329218740000000e-02
            3.678913450000000e-03 7.326868050000000e-02 5.809082580000000e-01 2.381999320000000e-01 6.273922300000000e-02 -3.602856050000000e-02 5.954369120000000e-02 -3.275847840000000e-02
            5.811453400000000e-01 2.397532030000000e-01 3.644087100000000e-03 7.329167920000000e-02 5.954766400000000e-02 -3.275442800000000e-02 6.550706520000001e-02 -3.270738290000000e-02
210824854.0000000000 5.067637060000000e-02 -1.773689570000000e-02 5.270661070000000e-02 -1.818518330000000e-02 2.269147000000000e-02 6.706312139999999e-02 6.225210430000000e-01 9.708785120000001e-02
            5.272252970000000e-02 -1.820252300000000e-02 4.872706530000000e-02 -2.007272930000000e-02 6.219611660000000e-01 9.563404680000000e-02 2.267498760000000e-02 6.708374130000000e-02
            2.270180930000000e-02 6.706664599999999e-02 6.219748020000000e-01 9.564406370000000e-02 5.045539680000000e-02 -2.238163790000000e-02 4.715214270000000e-02 -1.895404960000000e-02
            6.225185770000000e-01 9.709906109999999e-02 2.266587720000000e-02 6.708687380000000e-02 4.714635820000000e-02 -1.895467030000000e-02 5.321528760000000e-02 -1.903181340000000e-02
211324437.0000000000 4.594126100000000e-02 3.483213070000000e-04 4.794453000000000e-02 -1.434100140000000e-03 3.803444240000000e-02 5.570043760000000e-02 6.284359730000000e-01 -5.214425550000000e-02
            4.794202730000000e-02 -1.440385660000000e-03 4.399743310000000e-02 -2.016387000000000e-03 6.275680700000000e-01 -5.338636600000000e-02 3.802358270000000e-02 5.573920880000000e-02
            3.802736210000000e-02 5.571007900000000e-02 6.275744720000000e-01 -5.339631380000000e-02 4.593722760000000e-02 -4.502519320000000e-03 4.243853030000000e-02 -8.622949230000000e-04
            6.284409680000000e-01 -5.213120600000000e-02 3.800166390000000e-02 5.573904450000000e-02 4.243988500000000e-02 -8.633614320000000e-04 4.868716690000000e-02 -1.143271120000000e-03
211824020.0000000000 5.022291160000000e-02 1.854746010000000e-02 5.172084850000000e-02 1.551950990000000e-02 4.829747640000000e-02 4.135319870000000e-02 5.980494860000000e-01 -1.984712990000000e-01
            5.172802350000000e-02 1.552175860000000e-02 4.828645120000000e-02 1.618745740000000e-02 5.969290580000000e-01 -1.994828730000000e-01 4.829674260000000e-02 4.138547510000000e-02
            4.830254020000000e-02 4.134670450000000e-02 5.969151310000000e-01 -1.994849290000000e-01 5.034669260000000e-02 1.339585500000000e-02 4.661397400000000e-02 1.733207590000000e-02
            5.980484619999999e-01 -1.984635290000000e-01 4.830155520000000e-02 4.138560750000000e-02 4.662662080000000e-02 1.733865780000000e-02 5.307878400000000e-02 1.677092640000000e-02
212323603.0000000000 6.245407820000000e-02 3.257638720000000e-02 6.304949379999999e-02 2.854982330000000e-02 5.347717290000000e-02 2.632294940000000e-02 5.335217289999999e-01 -3.326071870000000e-01
            6.306796510000000e-02 2.856794790000000e-02 6.049186100000000e-02 3.021853650000000e-02 5.321949380000000e-01 -3.333195580000000e-01 5.348723730000000e-02 2.633379800000000e-02
            5.347448030000000e-02 2.630531430000000e-02 5.321989160000000e-01 -3.333075290000000e-01 6.250371600000000e-02 2.704152750000000e-02 5.860951860000000e-02 3.143679740000000e-02
            5.335134590000000e-01 -3.326054970000000e-01 5.348092920000000e-02 2.634668100000000e-02 5.857782180000000e-02 3.144709580000000e-02 6.525489730000000e-02 3.043455920000000e-02
212823186.0000000000 7.959627390000000e-02 3.926740550000000e-02 7.907947130000000e-02 3.465470950000000e-02 5.458464810000000e-02 1.228496130000000e-02 4.396071630000000e-01 -4.465701620000000e-01
            7.907639830000000e-02 3.465874590000000e-02 7.766784540000000e-02 3.690021170000000e-02 4.381635720000000e-01 -4.469394360000000e-01 5.460396270000000e-02 1.231090130000000e-02
            5.460270430000000e-02 1.228212330000000e-02 4.381702220000000e-01 -4.469490150000000e-01 7.945963540000001e-02 3.340904240000000e-02 7.545772800000000e-02 3.841580990000000e-02
            4.396186050000000e-01 -4.465713690000000e-01 5.459763390000000e-02 1.231481890000000e-02 7.546551730000001e-02 3.840597990000000e-02 8.219556350000000e-02 3.682668540000000e-02
213322769.0000000000 9.770975430000001e-02 3.738936630000000e-02 9.594763620000001e-02 3.260789060000000e-02 5.305263770000000e-02 -1.100587190000000e-04 3.227660240000000e-01 -5.344750460000000e-01
            9.593938959999999e-02 3.261340310000000e-02 9.576266820000000e-02 3.500761850000000e-02 3.212982170000000e-01 -5.345224360000000e-01 5.306738630000000e-02 -7.494207470000000e-05
            5.305285100000000e-02 -9.379364610000000e-05 3.213084780000000e-01 -5.344979900000000e-01 9.719698700000000e-02 3.132560730000000e-02 9.332295370000000e-02 3.698448710000000e-02
            3.227753210000000e-01 -5.344767200000000e-01 5.307142400000000e-02 -7.459931080000000e-05 9.333354290000000e-02 3.698289550000000e-02 9.997454030000000e-02 3.471263140000000e-02
213822352.0000000000 1.128287570000000e-01 2.762476770000000e-02 1.099132490000000e-01 2.312092660000000e-02 4.986170480000000e-02 -1.111530900000000e-02 1.901577930000000e-01 -5.925979080000000e-01
            1.099128270000000e-01 2.312239650000000e-02 1.108805830000000e-01 2.524718460000000e-02 1.887419100000000e-01 -5.922936130000001e-01 4.988963150000000e-02 -1.110403150000000e-02
            4.983291880000000e-02 -1.113214610000000e-02 1.887404860000000e-01 -5.923026570000000e-01 1.118785410000000e-01 2.149374360000000e-02 1.083483240000000e-01 2.787729410000000e-02
            1.901579120000000e-01 -5.926090140000000e-01 4.987838650000000e-02 -1.109158570000000e-02 1.083621780000000e-01 2.786778750000000e-02 1.146557430000000e-01 2.489213100000000e-02
214321935.0000000000 1.218726560000000e-01 1.223689550000000e-02 1.180359200000000e-01 8.362149830000000e-03 4.527846080000000e-02 -2.131356120000000e-02 4.892872630000000e-02 -6.190702700000000e-01
            1.180327400000000e-01 8.379671960000000e-03 1.199330750000000e-01 9.860307170000001e-03 4.761100830000000e-02 -6.184646670000000e-01 4.529686230000000e-02 -2.130219150000000e-02
            4.525913590000000e-02 -2.131393900000000e-02 4.761830220000000e-02 -6.184631590000000e-01 1.205097620000000e-01 6.240075900000000e-03 1.175679500000000e-01 1.323336330000000e-02
            4.891176250000000e-02 -6.190694680000000e-01 4.530416530000000e-02 -2.130474790000000e-02 1.175830590000000e-01 1.322926700000000e-02 1.232550950000000e-01 9.641297570000000e-03
214821518.0000000000 1.231140870000000e-01 -5.496014980000000e-03 1.186908840000000e-01 -8.526889390000000e-03 3.891487310000000e-02 -3.097349740000000e-02 -9.410941330000000e-02 -6.133454690000000e-01
            1.186951670000000e-01 -8.510663280000001e-03 1.211619190000000e-01 -7.870045550000000e-03 -9.521714290000000e-02 -6.124482850000000e-01 3.896081550000000e-02 -3.095102300000000e-02
            3.890876320000000e-02 -3.095926570000000e-02 -9.522828460000000e-02 -6.124267060000000e-01 1.213799610000000e-01 -1.119265040000000e-02 1.192888690000000e-01 -3.772883320000000e-03
            -9.411644420000000e-02 -6.133227850000000e-01 3.892346960000000e-02 -3.094737990000000e-02 1.192831190000000e-01 -3.773977490000000e-03 1.241583070000000e-01 -7.786310390000000e-03
215321101.0000000000 1.163352720000000e-01 -2.192063850000000e-02 1.116656750000000e-01 -2.405929330000000e-02 3.012269830000000e-02 -3.965135750000000e-02 -2.323330920000000e-01 -5.758271650000000e-01
            1.116642850000000e-01 -2.405326930000000e-02 1.143884470000000e-01 -2.428951990000000e-02 -2.332104570000000e-01 -5.747175170000000e-01 3.015166930000000e-02 -3.964596000000000e-02
            3.011613850000000e-02 -3.965524720000000e-02 -2.332109050000000e-01 -5.747023520000000e-01 1.143774450000000e-01 -2.719048320000000e-02 1.132348820000000e-01 -1.964572310000000e-02
            -2.323304270000000e-01 -5.758236700000000e-01 3.015542400000000e-02 -3.965335200000000e-02 1.132409510000000e-01 -1.964562080000000e-02 1.171277570000000e-01 -2.380578180000000e-02
215820684.0000000000 1.028312850000000e-01 -3.365391100000000e-02 9.827218120000000e-02 -3.497172160000000e-02 1.859651960000000e-02 -4.628257790000000e-02 -3.592298790000000e-01 -5.079336930000000e-01
            9.827658200000000e-02 -3.495442180000000e-02 1.009159070000000e-01 -3.600839120000000e-02 -3.598329760000000e-01 -5.066593130000000e-01 1.863388740000000e-02 -4.627132950000000e-02
            1.859784210000000e-02 -4.627920510000000e-02 -3.598218230000000e-01 -5.066651330000000e-01 1.008793330000000e-01 -3.844051110000000e-02 1.007147230000000e-01 -3.108429840000000e-02
            -3.592311320000000e-01 -5.079131000000000e-01 1.864716690000000e-02 -4.628367380000000e-02 1.007203520000000e-01 -3.107877180000000e-02 1.036018720000000e-01 -3.505712350000000e-02
216320267.0000000000 8.537157440000000e-02 -3.806179920000000e-02 8.114691150000000e-02 -3.874392980000000e-02 4.833149500000000e-03 -4.940634780000000e-02 -4.682365520000000e-01 -4.122225190000000e-01
            8.115751570000000e-02 -3.874632680000000e-02 8.346294030000000e-02 -4.041815550000000e-02 -4.685277700000000e-01 -4.108493800000000e-01 4.866336870000000e-03 -4.942581150000000e-02
            4.834195650000000e-03 -4.940938370000000e-02 -4.685223820000000e-01 -4.108604550000000e-01 8.356108460000000e-02 -4.242803980000000e-02 8.431839080000000e-02 -3.556293500000000e-02
            -4.682366330000000e-01 -4.122055740000000e-01 4.859723560000000e-03 -4.942139600000000e-02 8.430140020000000e-02 -3.556819660000000e-02 8.628592039999999e-02 -3.904767390000000e-02
216819850.0000000000 6.766034190000000e-02 -3.397710620000000e-02 6.388911379999999e-02 -3.429985460000000e-02 -9.755786450000000e-03 -4.785590830000000e-02 -5.528727850000000e-01 -2.927336290000000e-01
            6.389730439999999e-02 -3.429590160000000e-02 6.577077510000000e-02 -3.634018320000000e-02 -5.528296539999999e-01 -2.913430100000000e-01 -9.737581920000000e-03 -4.787696210000000e-02
            -9.734822319999999e-03 -4.784957070000000e-02 -5.528267810000000e-01 -2.913580060000000e-01 6.615554660000000e-02 -3.801252980000000e-02 6.758007770000000e-02 -3.194739720000000e-02
            -5.528838230000001e-01 -2.927338900000000e-01 -9.728931900000000e-03 -4.786654580000000e-02 6.759199439999999e-02 -3.194690960000000e-02 6.884970380000000e-02 -3.463569620000000e-02
217319433.0000000000 5.376018310000000e-02 -2.205196520000000e-02 5.041934560000000e-02 -2.227517710000000e-02 -2.302198750000000e-02 -4.132497050000000e-02 -6.073778700000000e-01 -1.554925490000000e-01
            5.043228510000000e-02 -2.228225380000000e-02 5.187459740000000e-02 -2.445008490000000e-02 -6.069960980000000e-01 -1.541534860000000e-01 -2.301806440000000e-02 -4.134087850000000e-02
            -2.302825300000000e-02 -4.131813980000000e-02 -6.070116180000000e-01 -1.541631870000000e-01 5.261104240000000e-02 -2.597477280000000e-02 5.443454110000000e-02 -2.088607860000000e-02
            -6.073839910000000e-01 -1.554757840000000e-01 -2.302042360000000e-02 -4.133692100000000e-02 5.443217500000000e-02 -2.086804640000000e-02 5.529817100000000e-02 -2.255764380000000e-02
217819016.0000000000 4.698345600000000e-02 -4.992237510000000e-03 4.395261940000000e-02 -5.296231030000000e-03 -3.290926070000000e-02 -3.078586110000000e-02 -6.274929690000000e-01 -8.310962599999999e-03
            4.395191730000000e-02 -5.289058370000000e-03 4.510163300000000e-02 -7.401828920000000e-03 -6.268254950000000e-01 -7.142068870000000e-03 -3.289390510000000e-02 -3.080571550000000e-02
            -3.291521720000000e-02 -3.077852040000000e-02 -6.268160470000000e-01 -7.129289920000000e-03 4.618719350000000e-02 -8.918202470000001e-03 4.804662220000000e-02 -4.845692900000000e-03
            -6.274833760000000e-01 -8.312347090000000e-03 -3.289625680000000e-02 -3.081668410000000e-02 4.804376120000000e-02 -4.849262170000000e-03 4.886046040000000e-02 -5.487772830000000e-03
218318599.0000000000 4.902611900000000e-02 1.324053360000000e-02 4.608144920000000e-02 1.275591570000000e-02 -3.809709040000000e-02 -1.818320970000000e-02 -6.114084190000000e-01 1.395170200000000e-01
            4.609095140000000e-02 1.276135300000000e-02 4.714096350000000e-02 1.082540180000000e-02 -6.104899610000000e-01 1.405191250000000e-01 -3.810482630000000e-02 -1.820329280000000e-02
            -3.809645600000000e-02 -1.817625380000000e-02 -6.104874370000000e-01 1.405050010000000e-01 4.846407400000000e-02 9.172532440000001e-03 5.001613260000000e-02 1.227352950000000e-02
            -6.114225460000000e-01 1.395370110000000e-01 -3.809173460000000e-02 -1.821399450000000e-02 5.001883620000000e-02 1.227764880000000e-02 5.113640240000000e-02 1.261789110000000e-02
218818182.0000000000 5.929757610000000e-02 2.828640890000000e-02 5.626439730000000e-02 2.768580160000000e-02 -3.858996790000000e-02 -5.792182080000000e-03 -5.603046640000000e-01 2.786241420000000e-01
            5.626619510000000e-02 2.769002040000000e-02 5.741788430000000e-02 2.586877950000000e-02 -5.591950830000000e-01 2.793600430000000e-01 -3.858508110000000e-02 -5.803316180000000e-03
            -3.858738830000000e-02 -5.794472360000000e-03 -5.592047630000000e-01 2.793573720000000e-01 5.886615260000000e-02 2.402242400000000e-02 5.981860610000000e-02 2.634733110000000e-02
            -5.603233040000000e-01 2.786365640000000e-01 -3.859929230000000e-02 -5.819139820000000e-03 5.980161770000000e-02 2.635984040000000e-02 6.153464020000000e-02 2.747521940000000e-02
219317765.0000000000 7.526311519999999e-02 3.671046240000000e-02 7.196019390000000e-02 3.612481270000000e-02 -3.549685510000000e-02 4.686324330000000e-03 -4.780865050000000e-01 4.006046810000000e-01
            7.194906910000000e-02 3.611626700000000e-02 7.336854769999999e-02 3.429666600000000e-02 -4.768434680000000e-01 4.010438830000000e-01 -3.548770760000000e-02 4.671249590000000e-03
            -3.549906690000000e-02 4.688869000000000e-03 -4.768460520000000e-01 4.010367580000000e-01 7.479855210000000e-02 3.228990580000000e-02 7.494391979999999e-02 3.410240540000000e-02
            -4.780719670000000e-01 4.005949820000000e-01 -3.551844490000000e-02 4.659000030000000e-03 7.493218030000000e-02 3.409045780000000e-02 7.747765390000000e-02 3.572181040000000e-02
219817348.0000000000 9.307657340000000e-02 3.680329080000000e-02 8.949073660000000e-02 3.645599880000000e-02 -3.042839460000000e-02 1.256715950000000e-02 -3.705430090000000e-01 4.988698250000000e-01
            8.947230680000000e-02 3.645175280000000e-02 9.118677150000000e-02 3.439208340000000e-02 -3.692656280000000e-01 4.990241420000000e-01 -3.045286750000000e-02 1.256632620000000e-02
            -3.044987820000000e-02 1.256389840000000e-02 -3.692615110000000e-01 4.990193340000000e-01 9.248629140000000e-02 3.230862110000000e-02 9.175655630000000e-02 3.393939340000000e-02
            -3.705417920000000e-01 4.988659820000000e-01 -3.044858000000000e-02 1.255748170000000e-02 9.175939090000000e-02 3.393457190000000e-02 9.519724500000000e-02 3.574320340000000e-02
220316931.0000000000 1.088141280000000e-01 2.884996230000000e-02 1.049640690000000e-01 2.894641160000000e-02 -2.472662870000000e-02 1.820628440000000e-02 -2.445108180000000e-01 5.690158230000000e-01
            1.049523830000000e-01 2.896088720000000e-02 1.069084720000000e-01 2.642812300000000e-02 -2.432366120000000e-01 5.688657250000000e-01 -2.474539110000000e-02 1.819647810000000e-02
            -2.473179730000000e-02 1.821323930000000e-02 -2.432570300000000e-01 5.688489289999999e-01 1.080626680000000e-01 2.435300760000000e-02 1.065122840000000e-01 2.612611350000000e-02
            -2.445254320000000e-01 5.690292300000001e-01 -2.475279320000000e-02 1.820221020000000e-02 1.065095430000000e-01 2.612210590000000e-02 1.107636530000000e-01 2.781358940000000e-02
220816514.0000000000 1.191537580000000e-01 1.477217560000000e-02 1.152568130000000e-01 1.549041730000000e-02 -1.900572110000000e-02 2.240679480000000e-02 -1.069419750000000e-01 6.084544260000000e-01
            1.152525120000000e-01 1.548254270000000e-02 1.172570410000000e-01 1.235290160000000e-02 -1.057726330000000e-01 6.080336650000000e-01 -1.902163210000000e-02 2.239867180000000e-02
            -1.901459240000000e-02 2.239548290000000e-02 -1.057761320000000e-01 6.080368229999999e-01 1.182829300000000e-01 1.041899940000000e-02 1.160456080000000e-01 1.256771250000000e-02
            -1.069672210000000e-01 6.084707860000000e-01 -1.902033080000000e-02 2.239012920000000e-02 1.160404950000000e-01 1.255398700000000e-02 1.209738930000000e-01 1.385143640000000e-02
221316097.0000000000 1.220697830000000e-01 -2.408159750000000e-03 1.183985040000000e-01 -9.864234260000000e-04 -1.303464970000000e-02 2.582079680000000e-02 3.529184320000000e-02 6.160659300000000e-01
            1.183911410000000e-01 -9.743863480000000e-04 1.201751140000000e-01 -4.803624430000000e-03 3.634416800000000e-02 6.153950430000000e-01 -1.304836300000000e-02 2.582244410000000e-02
            -1.303235920000000e-02 2.582459030000000e-02 3.635221330000000e-02 6.153946020000000e-01 1.211598030000000e-01 -6.509873980000000e-03 1.184544260000000e-01 -3.827281880000000e-03
            3.530952790000000e-02 6.160652320000000e-01 -1.303953870000000e-02 2.582284400000000e-02 1.184634540000000e-01 -3.829366500000000e-03 1.238430470000000e-01 -3.066439530000000e-03
221815680.0000000000 1.170002650000000e-01 -1.910121840000000e-02 1.138426570000000e-01 -1.702701130000000e-02 -6.230834240000000e-03 2.857022880000000e-02 1.756403790000000e-01 5.917726920000000e-01
            1.138362380000000e-01 -1.702676280000000e-02 1.151187640000000e-01 -2.151588220000000e-02 1.764948170000000e-01 5.908600040000000e-01 -6.250573370000000e-03 2.856980770000000e-02
            -6.235313570000000e-03 2.857556300000000e-02 1.764895140000000e-01 5.908718340000000e-01 1.161796600000000e-01 -2.291113190000000e-02 1.132591440000000e-01 -1.960906120000000e-02
            1.756463560000000e-01 5.917670400000000e-01 -6.252558320000000e-03 2.856958200000000e-02 1.132686400000000e-01 -1.961465440000000e-02 1.188422850000000e-01 -1.947204550000000e-02
222315263.0000000000 1.049310410000000e-01 -3.182754380000000e-02 1.025373320000000e-01 -2.929170930000000e-02 1.879513640000000e-03 3.002786640000000e-02 3.074755660000000e-01 5.363689230000001e-01
            1.025342640000000e-01 -2.929039830000000e-02 1.030424480000000e-01 -3.422909150000000e-02 3.080939120000000e-01 5.353296780000000e-01 1.862589970000000e-03 3.003461900000000e-02
            1.881045200000000e-03 3.001858010000000e-02 3.080995830000000e-01 5.353394160000000e-01 1.043125600000000e-01 -3.537985740000000e-02 1.014377940000000e-01 -3.152981400000000e-02
            3.074845990000000e-01 5.363751650000000e-01 1.851509680000000e-03 3.002923030000000e-02 1.014425160000000e-01 -3.150507080000000e-02 1.069822340000000e-01 -3.193894900000000e-02
222814846.0000000000 8.825398620000000e-02 -3.781268710000000e-02 8.680066660000001e-02 -3.511204060000000e-02 1.114081870000000e-02 2.908400300000000e-02 4.241629820000000e-01 4.518998030000000e-01
            8.679150760000000e-02 -3.511561780000000e-02 8.640511610000000e-02 -4.022719000000000e-02 4.245024740000000e-01 4.507303190000000e-01 1.113799080000000e-02 2.909647200000000e-02
            1.114863130000000e-02 2.907916130000000e-02 4.245010450000000e-01 4.507429620000000e-01 8.798477709999999e-02 -4.117725660000000e-02 8.528421370000000e-02 -3.688641650000000e-02
            4.241661240000000e-01 4.518997800000000e-01 1.113775760000000e-02 2.909954840000000e-02 8.528137390000000e-02 -3.687261710000000e-02 9.061636090000000e-02 -3.775082440000000e-02
223314429.0000000000 7.049582460000001e-02 -3.553013040000000e-02 7.001427980000000e-02 -3.300886370000000e-02 2.057086230000000e-02 2.477656320000000e-02 5.189849940000000e-01 3.417405980000000e-01
            7.002655020000000e-02 -3.301779720000000e-02 6.864122770000000e-02 -3.795725250000000e-02 5.190354800000000e-01 3.405380480000000e-01 2.055916720000000e-02 2.478645310000000e-02
            2.056056530000000e-02 2.477357750000000e-02 5.190535250000000e-01 3.405584480000000e-01 7.061920280000000e-02 -3.885396170000000e-02 6.822473900000001e-02 -3.427742800000000e-02
            5.189779490000000e-01 3.417567680000000e-01 2.055834390000000e-02 2.477508220000000e-02 6.823101160000000e-02 -3.427480560000000e-02 7.326223220000000e-02 -3.540720560000000e-02
223814012.0000000000 5.564123880000000e-02 -2.526760710000000e-02 5.602010690000000e-02 -2.323968640000000e-02 2.841655010000000e-02 1.675288040000000e-02 5.857530240000000e-01 2.112792840000000e-01
            5.602560610000000e-02 -2.324765670000000e-02 5.380112960000000e-02 -2.765807690000000e-02 5.855364320000001e-01 2.100994890000000e-01 2.842256270000000e-02 1.676378990000000e-02
            2.843778660000000e-02 1.676824580000000e-02 5.855412580000000e-01 2.100965980000000e-01 5.618896670000000e-02 -2.867918380000000e-02 5.407903760000000e-02 -2.400723940000000e-02
            5.857601350000000e-01 2.112731270000000e-01 2.842763310000000e-02 1.677895390000000e-02 5.407134870000000e-02 -2.399518560000000e-02 5.880740580000000e-02 -2.524418790000000e-02
224313595.0000000000 4.721443110000000e-02 -9.146112680000000e-03 4.820253050000000e-02 -7.935476449999999e-03 3.291564920000000e-02 5.869403100000000e-03 6.195557490000000e-01 6.777796649999999e-02
            4.821424950000000e-02 -7.941954820000000e-03 4.537264830000000e-02 -1.158169920000000e-02 6.190816910000000e-01 6.668970660000000e-02 3.290597790000000e-02 5.880814160000000e-03
            3.291483830000000e-02 5.873638920000000e-03 6.190777780000000e-01 6.669361100000000e-02 4.810561290000000e-02 -1.285274190000000e-02 4.622861460000000e-02 -8.178750650000000e-03
            6.195508060000000e-01 6.776142350000000e-02 3.292200730000000e-02 5.891072400000000e-03 4.622795280000000e-02 -8.183941520000000e-03 5.069062780000000e-02 -9.397509770000000e-03
224813178.0000000000 4.728134940000000e-02 9.032500150000001e-03 4.854156450000000e-02 9.269047510000000e-03 3.283868150000000e-02 -6.076308760000000e-03 6.177222270000000e-01 -7.988919949999999e-02
            4.855575680000000e-02 9.284660790000000e-03 4.544753120000000e-02 6.614122350000000e-03 6.169931080000000e-01 -8.082670960000000e-02 3.285643500000000e-02 -6.044560500000000e-03
            3.283173270000000e-02 -6.059513950000000e-03 6.170161790000001e-01 -8.081533850000000e-02 4.835585760000000e-02 4.950888820000000e-03 4.661316030000000e-02 9.517471039999999e-03
            6.177128500000000e-01 -7.989819320000000e-02 3.285114620000000e-02 -6.053286900000000e-03 4.661680700000000e-02 9.514932090000001e-03 5.095161860000000e-02 8.433811330000001e-03
225312761.0000000000 5.580883790000000e-02 2.499389830000000e-02 5.697278380000000e-02 2.426184580000000e-02 2.826630700000000e-02 -1.685782970000000e-02 5.803946610000000e-01 -2.223101570000000e-01
            5.695448920000000e-02 2.427306830000000e-02 5.397666290000000e-02 2.254631430000000e-02 5.795222430000000e-01 -2.230367360000000e-01 2.826544350000000e-02 -1.683751320000000e-02
            2.825937160000000e-02 -1.685003600000000e-02 5.795034160000000e-01 -2.230311050000000e-01 5.689481040000000e-02 2.050081170000000e-02 5.515010220000000e-02 2.496317930000000e-02
            5.804005060000000e-01 -2.223078400000000e-01 2.828060120000000e-02 -1.683621990000000e-02 5.516187410000000e-02 2.497401270000000e-02 5.949459290000000e-02 2.399864380000000e-02
225812344.0000000000 7.065798750000001e-02 3.504884290000000e-02 7.133867360000000e-02 3.351274350000000e-02 2.037403440000000e-02 -2.470976560000000e-02 5.106115550000000e-01 -3.507517120000000e-01
            7.133854140000000e-02 3.351519680000000e-02 6.882861260000001e-02 3.260105020000000e-02 5.095670280000000e-01 -3.512352110000000e-01 2.039949900000000e-02 -2.471061720000000e-02
            2.037838540000000e-02 -2.471729990000000e-02 5.095783670000000e-01 -3.512476300000000e-01 7.156498340000000e-02 3.023170250000000e-02 6.973626370000000e-02 3.465300240000000e-02
            5.106060290000000e-01 -3.507582580000000e-01 2.039155550000000e-02 -2.471830690000000e-02 6.973695980000000e-02 3.464048640000000e-02 7.416820220000001e-02 3.371701510000000e-02
226311927.0000000000 8.825795220000000e-02 3.708845690000000e-02 8.821680880000000e-02 3.501599840000000e-02 1.103266210000000e-02 -2.891039330000000e-02 4.134567580000000e-01 -4.581108260000000e-01
            8.823308219999999e-02 3.501695200000000e-02 8.642037919999999e-02 3.464004870000000e-02 4.123699180000000e-01 -4.583582240000000e-01 1.105904480000000e-02 -2.891476370000000e-02
            1.103884470000000e-02 -2.891051970000000e-02 4.123775440000000e-01 -4.583523820000000e-01 8.887655770000000e-02 3.207553790000000e-02 8.690645819999999e-02 3.655098310000000e-02
            4.134604490000000e-01 -4.581316530000000e-01 1.105202020000000e-02 -2.891899480000000e-02 8.691130870000000e-02 3.655323360000000e-02 9.146305750000000e-02 3.557556790000000e-02
226811510.0000000000 1.046513270000000e-01 3.092107160000000e-02 1.037958300000000e-01 2.866356030000000e-02 1.898919470000000e-03 -2.979700570000000e-02 2.953419190000000e-01 -5.393033490000000e-01
            1.037928860000000e-01 2.865446840000000e-02 1.028086970000000e-01 2.846732680000000e-02 2.942425640000000e-01 -5.392656070000000e-01 1.934132950000000e-03 -2.980140010000000e-02
            1.917456780000000e-03 -2.979064340000000e-02 2.942518330000000e-01 -5.392769080000001e-01 1.049305710000000e-01 2.591555940000000e-02 1.028480290000000e-01 3.055770350000000e-02
            2.953381330000000e-01 -5.393068880000000e-01 1.921786440000000e-03 -2.979395910000000e-02 1.028553010000000e-01 3.057477630000000e-02 1.075509930000000e-01 2.939965610000000e-02
227311093.0000000000 1.164046560000000e-01 1.813170880000000e-02 1.147328050000000e-01 1.601575020000000e-02 -6.065390960000000e-03 -2.839369150000000e-02 1.629901350000000e-01 -5.911241890000000e-01
            1.147366960000000e-01 1.601233210000000e-02 1.145674060000000e-01 1.566989660000000e-02 1.619578580000000e-01 -5.908451750000000e-01 -6.045400360000000e-03 -2.840905950000000e-02
            -6.060630460000000e-03 -2.839378720000000e-02 1.619583400000000e-01 -5.908458170000001e-01 1.163957140000000e-01 1.332095070000000e-02 1.142425070000000e-01 1.822592790000000e-02
            1.630010080000000e-01 -5.911218090000000e-01 -6.050448550000000e-03 -2.840668260000000e-02 1.142586670000000e-01 1.824312220000000e-02 1.189858300000000e-01 1.680665200000000e-02
227810676.0000000000 1.211337010000000e-01 1.485596420000000e-03 1.188505510000000e-01 -1.698022550000000e-04 -1.278126470000000e-02 -2.574862280000000e-02 2.311851180000000e-02 -6.118378510000000e-01
            1.188647050000000e-01 -1.455783090000000e-04 1.192937520000000e-01 -9.715951850000000e-04 2.217988970000000e-02 -6.113279410000000e-01 -1.277599350000000e-02 -2.574454090000000e-02
            -1.278635700000000e-02 -2.574448610000000e-02 2.217869210000000e-02 -6.113344650000000e-01 1.209656610000000e-01 -2.958381030000000e-03 1.189182570000000e-01 2.290743160000000e-03
            2.311684800000000e-02 -6.118379240000000e-01 -1.277378440000000e-02 -2.574483100000000e-02 1.189294710000000e-01 2.293997780000000e-03 1.235670020000000e-01 5.596456820000000e-04
228310259.0000000000 1.179326860000000e-01 -1.555656590000000e-02 1.153330240000000e-01 -1.654930230000000e-02 -1.873464180000000e-02 -2.244710260000000e-02 -1.177191470000000e-01 -6.008126360000000e-01
            1.153213800000000e-01 -1.653075790000000e-02 1.161100670000000e-01 -1.798279780000000e-02 -1.185289570000000e-01 -6.001291830000000e-01 -1.871333780000000e-02 -2.245404590000000e-02
            -1.872430150000000e-02 -2.243585090000000e-02 -1.185094560000000e-01 -6.001371700000000e-01 1.178507260000000e-01 -1.949044070000000e-02 1.160527610000000e-01 -1.396888540000000e-02
            -1.177145480000000e-01 -6.008185720000000e-01 -1.873589950000000e-02 -2.243438910000000e-02 1.160673500000000e-01 -1.396139630000000e-02 1.204422430000000e-01 -1.600271100000000e-02
228809842.0000000000 1.074286890000000e-01 -2.942545130000000e-02 1.047901920000000e-01 -2.974252560000000e-02 -2.450265490000000e-02 -1.831129710000000e-02 -2.529435640000000e-01 -5.583992140000000e-01
            1.047791460000000e-01 -2.973735330000000e-02 1.055986400000000e-01 -3.185909080000000e-02 -2.535504400000000e-01 -5.575522939999999e-01 -2.450161730000000e-02 -1.833422320000000e-02
            -2.449990740000000e-02 -1.833207210000000e-02 -2.535391240000000e-01 -5.575528520000000e-01 1.076673390000000e-01 -3.295566780000000e-02 1.062413460000000e-01 -2.721269400000000e-02
            -2.529528810000000e-01 -5.583964410000000e-01 -2.449555290000000e-02 -1.831525860000000e-02 1.062484930000000e-01 -2.724426220000000e-02 1.102360770000000e-01 -2.944456070000000e-02
229309425.0000000000 9.163935060000000e-02 -3.721405730000000e-02 8.926400790000000e-02 -3.693844230000000e-02 -3.023267950000000e-02 -1.271463360000000e-02 -3.758365360000000e-01 -4.859460120000000e-01
            8.926156420000000e-02 -3.694220370000000e-02 8.984271760000000e-02 -3.966402660000000e-02 -3.762440990000000e-01 -4.850204450000000e-01 -3.020710340000000e-02 -1.273124080000000e-02
            -3.021663660000000e-02 -1.270795870000000e-02 -3.762400270000000e-01 -4.850151090000000e-01 9.246499190000000e-02 -4.041437850000000e-02 9.147528750000000e-02 -3.462991850000000e-02
            -3.758611580000000e-01 -4.859694360000000e-01 -3.022912300000000e-02 -1.274129280000000e-02 9.147102479999999e-02 -3.464771690000000e-02 9.503508550000000e-02 -3.692068900000000e-02
229809008.0000000000 7.383310760000000e-02 -3.703701610000000e-02 7.194066460000000e-02 -3.638556230000000e-02 -3.526629980000000e-02 -4.861461660000000e-03 -4.796439470000000e-01 -3.863017860000000e-01
            7.192017090000000e-02 -3.637941570000000e-02 7.203677240000000e-02 -3.947727690000000e-02 -4.798064230000000e-01 -3.853159970000000e-01 -3.526617040000000e-02 -4.882215930000000e-03
            -3.526101950000000e-02 -4.853127030000000e-03 -4.797970700000000e-01 -3.853070420000000e-01 7.541718209999999e-02 -4.015414500000000e-02 7.491262820000000e-02 -3.452871620000000e-02
            -4.796560050000000e-01 -3.863063080000000e-01 -3.525310870000000e-02 -4.885250320000000e-03 7.490436620000000e-02 -3.451327030000000e-02 7.798245380000000e-02 -3.665316290000000e-02
230308590.0000000000 5.792258200000000e-02 -2.864010140000000e-02 5.655723520000000e-02 -2.791011730000000e-02 -3.829537350000000e-02 5.518565810000000e-03 -5.577976340000000e-01 -2.640563670000000e-01
            5.655735330000000e-02 -2.792291090000000e-02 5.614201810000000e-02 -3.111462830000000e-02 -5.577075800000000e-01 -2.630488110000000e-01 -3.830852330000000e-02 5.503294800000000e-03
            -3.830288920000000e-02 5.510367270000000e-03 -5.577176030000000e-01 -2.630448520000000e-01 6.032571410000000e-02 -3.205029460000000e-02 6.019009540000000e-02 -2.671228230000000e-02
            -5.577955650000000e-01 -2.640507470000000e-01 -3.831013860000000e-02 5.496267940000000e-03 6.021210630000000e-02 -2.672658230000000e-02 6.286010609999999e-02 -2.854499950000000e-02
230808173.0000000000 4.760621140000000e-02 -1.380729360000000e-02 4.672271060000000e-02 -1.322446300000000e-02 -3.780625340000000e-02 1.774149700000000e-02 -6.047993600000000e-01 -1.258241790000000e-01
            4.672190360000000e-02 -1.320963570000000e-02 4.581691850000000e-02 -1.626384370000000e-02 -6.045039230000000e-01 -1.248849610000000e-01 -3.781918560000000e-02 1.772084440000000e-02
            -3.781766140000000e-02 1.773916540000000e-02 -6.045073660000000e-01 -1.248725650000000e-01 5.070347750000000e-02 -1.778128920000000e-02 5.083471320000000e-02 -1.294528480000000e-02
            -6.048096270000000e-01 -1.258273650000000e-01 -3.781162070000000e-02 1.771527700000000e-02 5.084170450000000e-02 -1.292892260000000e-02 5.322086480000000e-02 -1.426910200000000e-02
231307756.0000000000 4.533821750000000e-02 4.150775150000000e-03 4.473768870000000e-02 4.377050970000000e-03 -3.272430580000000e-02 3.009330500000000e-02 -6.171531930000000e-01 1.999413890000000e-02
            4.473102170000000e-02 4.354330940000000e-03 4.356255720000000e-02 1.686743510000000e-03 -6.166361450000000e-01 2.083372870000000e-02 -3.273589750000000e-02 3.009881600000000e-02
            -3.272651010000000e-02 3.011431880000000e-02 -6.166283140000000e-01 2.082474460000000e-02 4.889281260000000e-02 -6.995326640000001e-04 4.911787630000000e-02 3.603940940000000e-03
            -6.171520950000000e-01 1.999605900000000e-02 -3.274353590000000e-02 3.010410540000000e-02 4.910063450000000e-02 3.595940530000000e-03 5.142495540000000e-02 2.819914720000000e-03
231807339.0000000000 5.163898560000000e-02 2.101358620000000e-02 5.107457520000000e-02 2.078172240000000e-02 -2.310060550000000e-02 4.045325890000000e-02 -5.939909799999999e-01 1.641526000000000e-01
            5.108579990000000e-02 2.079138510000000e-02 4.985166790000000e-02 1.855112730000000e-02 -5.933027920000000e-01 1.648309990000000e-01 -2.313218840000000e-02 4.045422500000000e-02
            -2.310748960000000e-02 4.044751870000000e-02 -5.932996390000000e-01 1.648389880000000e-01 5.531548610000000e-02 1.513937510000000e-02 5.540306130000000e-02 1.885583500000000e-02
            -5.939865500000000e-01 1.641559630000000e-01 -2.311189740000000e-02 4.045952000000000e-02 5.540571440000000e-02 1.886048400000000e-02 5.784310760000000e-02 1.868115040000000e-02
232306922.0000000000 6.489264580000000e-02 3.288924400000000e-02 6.410069720000000e-02 3.227144460000000e-02 -1.019937510000000e-02 4.692095740000000e-02 -5.373409930000000e-01 2.977137890000000e-01
            6.409611050000000e-02 3.228251260000000e-02 6.309827640000000e-02 3.040840610000000e-02 -5.365110030000000e-01 2.981929050000000e-01 -1.022480710000000e-02 4.693009500000000e-02
            -1.020923940000000e-02 4.691128130000000e-02 -5.365298550000001e-01 2.981878050000000e-01 6.829879279999999e-02 2.601867560000000e-02 6.803219230000000e-02 2.923891860000000e-02
            -5.373432110000000e-01 2.977036300000000e-01 -1.022895200000000e-02 4.692742130000000e-02 6.803494570000000e-02 2.923606240000000e-02 7.083786490000001e-02 2.955249050000000e-02
232806505.0000000000 8.186069540000000e-02 3.726216240000000e-02 8.062286220000001e-02 3.642833110000000e-02 3.978485480000000e-03 4.862142240000000e-02 -4.515804910000000e-01 4.130440470000000e-01
            8.061702320000000e-02 3.642043270000000e-02 8.008449099999999e-02 3.476477640000000e-02 -4.506714870000000e-01 4.133241500000000e-01 3.950523540000000e-03 4.862804510000000e-02
            3.968437450000000e-03 4.861787060000000e-02 -4.506788350000000e-01 4.133264620000000e-01 8.466572159999999e-02 2.953469940000000e-02 8.386889050000000e-02 3.240225520000000e-02
            -4.515554610000000e-01 4.130613890000000e-01 3.947312790000000e-03 4.863414260000000e-02 8.386915189999999e-02 3.241574340000000e-02 8.718622080000001e-02 3.309273660000000e-02
233306088.0000000000 9.868989700000000e-02 3.341614890000000e-02 9.687982470000001e-02 3.267603550000000e-02 1.743771070000000e-02 4.583435640000000e-02 -3.424718590000000e-01 5.044352230000000e-01
            9.687425140000000e-02 3.268654390000000e-02 9.690344200000001e-02 3.093369620000000e-02 -3.415598040000000e-01 5.045090730000000e-01 1.744382850000000e-02 4.582493540000000e-02
            1.745704420000000e-02 4.582369960000000e-02 -3.415522350000000e-01 5.045153940000000e-01 1.006475350000000e-01 2.515423180000000e-02 9.920503700000000e-02 2.788445030000000e-02
            -3.424657330000000e-01 5.044438340000000e-01 1.742583120000000e-02 4.584254050000000e-02 9.923098260000000e-02 2.787497710000000e-02 1.031617260000000e-01 2.871700730000000e-02
233805671.0000000000 1.117451360000000e-01 2.250108730000000e-02 1.094158980000000e-01 2.219476190000000e-02 2.883547580000000e-02 3.963011460000000e-02 -2.165067720000000e-01 5.680462530000000e-01
            1.094103930000000e-01 2.217528060000000e-02 1.099633480000000e-01 2.002326820000000e-02 -2.156165380000000e-01 5.679093629999999e-01 2.884092940000000e-02 3.963923410000000e-02
            2.883960270000000e-02 3.962808720000000e-02 -2.156269600000000e-01 5.679002430000000e-01 1.127301920000000e-01 1.408619820000000e-02 1.106531790000000e-01 1.688078110000000e-02
            -2.165350440000000e-01 5.680451820000000e-01 2.883541880000000e-02 3.964541000000000e-02 1.106554870000000e-01 1.687705170000000e-02 1.152457680000000e-01 1.765664460000000e-02
234305254.0000000000 1.183954380000000e-01 7.052579010000000e-03 1.157293260000000e-01 7.435769330000000e-03 3.772911450000000e-02 3.136068710000000e-02 -8.024141780000001e-02 6.015044389999999e-01
            1.157314580000000e-01 7.426710460000000e-03 1.166227480000000e-01 4.569894990000000e-03 -7.941970170000000e-02 6.011682840000000e-01 3.772416650000000e-02 3.138861370000000e-02
            3.772720310000000e-02 3.136944580000000e-02 -7.942780260000000e-02 6.011696510000000e-01 1.185128460000000e-01 -1.175338240000000e-03 1.158156300000000e-01 1.857817200000000e-03
            -8.024354559999999e-02 6.014953830000001e-01 3.771065970000000e-02 3.137096870000000e-02 1.158311740000000e-01 1.877071370000000e-03 1.210438280000000e-01 2.362460470000000e-03
234804837.0000000000 1.174097010000000e-01 -9.685858900000000e-03 1.147185780000000e-01 -8.423208810000001e-03 4.432787930000000e-02 2.202577980000000e-02 5.981727530000000e-02 6.036481150000000e-01
            1.147123700000000e-01 -8.412826130000000e-03 1.156327910000000e-01 -1.218269430000000e-02 6.053907920000000e-02 6.031215830000000e-01 4.432608290000000e-02 2.203370080000000e-02
            4.433882540000000e-02 2.201095800000000e-02 6.052785060000000e-02 6.031236160000000e-01 1.168158770000000e-01 -1.741792290000000e-02 1.136170320000000e-01 -1.390973490000000e-02
            5.982095140000000e-02 6.036414490000001e-01 4.433811160000000e-02 2.203707740000000e-02 1.136284850000000e-01 -1.392978060000000e-02 1.193241930000000e-01 -1.385398980000000e-02
235304420.0000000000 1.089644090000000e-01 -2.422876550000000e-02 1.066237620000000e-01 -2.199810720000000e-02 4.919802150000000e-02 1.191156940000000e-02 1.971463680000000e-01 5.742370800000000e-01
            1.066399570000000e-01 -2.199938440000000e-02 1.071906920000000e-01 -2.669561510000000e-02 1.977102190000000e-01 5.735905100000001e-01 4.921015250000000e-02 1.193309190000000e-02
            4.919991610000000e-02 1.193998690000000e-02 1.977123380000000e-01 5.735932960000000e-01 1.079776580000000e-01 -3.121215060000000e-02 1.044371840000000e-01 -2.716977750000000e-02
            1.971423930000000e-01 5.742428120000000e-01 4.921147230000000e-02 1.196051370000000e-02 1.044429680000000e-01 -2.715400820000000e-02 1.104957510000000e-01 -2.766183900000000e-02
235804003.0000000000 9.476189120000000e-02 -3.342081900000000e-02 9.319157870000000e-02 -3.037880170000000e-02 5.257977780000000e-02 8.783861790000000e-04 3.249983810000000e-01 5.141445990000000e-01
            9.318681040000000e-02 -3.038143290000000e-02 9.300435030000000e-02 -3.591329270000000e-02 3.254001740000000e-01 5.133862710000000e-01 5.260299340000000e-02 8.914304580000000e-04
            5.259459780000000e-02 8.929803150000000e-04 3.253865510000000e-01 5.133739640000000e-01 9.379362750000000e-02 -3.961126370000000e-02 9.001085859999999e-02 -3.496627800000000e-02
            3.250076420000000e-01 5.141248650000000e-01 5.259935310000000e-02 8.999603030000000e-04 9.001941970000001e-02 -3.495098320000000e-02 9.626810040000000e-02 -3.606565080000000e-02
236303586.0000000000 7.774825909999999e-02 -3.517719390000000e-02 7.726821220000001e-02 -3.158893620000000e-02 5.417292960000000e-02 -1.159858750000000e-02 4.364558620000000e-01 4.255057280000000e-01
            7.727106420000000e-02 -3.159510170000000e-02 7.600778410000000e-02 -3.766862100000000e-02 4.366632930000000e-01 4.246895180000000e-01 5.418352060000000e-02 -1.156570370000000e-02
            5.416238070000000e-02 -1.158802520000000e-02 4.366670170000000e-01 4.247165780000000e-01 7.714116330000000e-02 -4.066053830000000e-02 7.333065340000000e-02 -3.537165190000000e-02
            4.364773390000000e-01 4.255117850000000e-01 5.417038400000000e-02 -1.156832930000000e-02 7.334085260000001e-02 -3.536572260000000e-02 7.960496800000000e-02 -3.711690600000000e-02
236803169.0000000000 6.166941410000000e-02 -2.887813530000000e-02 6.248157000000000e-02 -2.513624130000000e-02 5.293898420000000e-02 -2.556903990000000e-02 5.247480430000000e-01 3.123347340000000e-01
            6.247480860000000e-02 -2.513173580000000e-02 5.993639810000000e-02 -3.136150460000000e-02 5.247527530000000e-01 3.115072010000000e-01 5.294216510000000e-02 -2.555046160000000e-02
            5.294477650000000e-02 -2.555740580000000e-02 5.247522690000000e-01 3.115031220000000e-01 6.173884130000000e-02 -3.387778330000000e-02 5.802525130000000e-02 -2.797097490000000e-02
            5.247459030000000e-01 3.123429560000000e-01 5.294894930000000e-02 -2.557169450000000e-02 5.802999030000000e-02 -2.797454330000000e-02 6.419978190000000e-02 -3.031908860000000e-02
237302752.0000000000 5.023416290000000e-02 -1.571126030000000e-02 5.236832610000000e-02 -1.230171240000000e-02 4.764488810000000e-02 -4.034993560000000e-02 5.838840900000000e-01 1.805923730000000e-01
            5.237587130000000e-02 -1.230414410000000e-02 4.848941180000000e-02 -1.822071270000000e-02 5.836942680000000e-01 1.797976180000000e-01 4.766734070000000e-02 -4.034924210000000e-02
            4.765365460000000e-02 -4.034960680000000e-02 5.836892360000000e-01 1.798051210000000e-01 5.118815330000000e-02 -2.064522720000000e-02 4.766299810000000e-02 -1.418607100000000e-02
            5.838684220000000e-01 1.805893460000000e-01 4.768025540000000e-02 -4.034328610000000e-02 4.768649880000000e-02 -1.416935740000000e-02 5.364265970000000e-02 -1.706836840000000e-02
237802335.0000000000 4.617900160000000e-02 1.304627410000000e-03 4.951144160000000e-02 3.938367110000000e-03 3.744573130000000e-02 -5.426814690000000e-02 6.095985720000000e-01 3.817383180000000e-02
            4.951211330000000e-02 3.955259410000000e-03 4.446118250000000e-02 -1.218935100000000e-03 6.092454800000000e-01 3.745917610000000e-02 3.747750960000000e-02 -5.426779360000000e-02
            3.746007730000000e-02 -5.427249630000000e-02 6.092463400000000e-01 3.746062330000000e-02 4.806427940000000e-02 -3.974054720000000e-03 4.485258310000000e-02 2.991384120000000e-03
            6.096094090000000e-01 3.816774390000000e-02 3.747782600000000e-02 -5.427407230000000e-02 4.484607390000000e-02 2.994710740000000e-03 5.052895810000000e-02 -4.021952600000000e-04
238301918.0000000000 5.049203940000000e-02 1.821605760000000e-02 5.471420700000000e-02 1.972844310000000e-02 2.247832120000000e-02 -6.514972680000000e-02 6.002395000000000e-01 -1.059520650000000e-01
            5.470091950000000e-02 1.973045910000000e-02 4.877372290000000e-02 1.569541540000000e-02 5.997420060000000e-01 -1.065609840000000e-01 2.249769550000000e-02 -6.515853280000000e-02
            2.247850490000000e-02 -6.515050460000001e-02 5.997496680000000e-01 -1.065418200000000e-01 5.315447350000000e-02 1.217280380000000e-02 5.028436180000000e-02 1.956750080000000e-02
            6.002337010000000e-01 -1.059487510000000e-01 2.249394410000000e-02 -6.517175850000000e-02 5.026787320000000e-02 1.954836770000000e-02 5.560882320000000e-02 1.574057950000000e-02
238801501.0000000000 6.204833310000000e-02 3.110353750000000e-02 6.672446670000000e-02 3.126474920000000e-02 4.116947670000000e-03 -7.103981480000000e-02 5.568788020000000e-01 -2.427334530000000e-01
            6.672608490000000e-02 3.126867650000000e-02 6.032793410000000e-02 2.858903600000000e-02 5.562710180000000e-01 -2.431939310000000e-01 4.137834170000000e-03 -7.105731030000000e-02
            4.107283050000000e-03 -7.104973870000000e-02 5.562686970000000e-01 -2.432005870000000e-01 6.514780300000000e-02 2.390933670000000e-02 6.266441320000000e-02 3.170617970000000e-02
            5.568837420000000e-01 -2.427482970000000e-01 4.144143960000000e-03 -7.104444490000000e-02 6.267155710000000e-02 3.170363190000000e-02 6.759155020000000e-02 2.748923670000000e-02
239301084.0000000000 7.803213500000000e-02 3.715700350000000e-02 8.270248420000000e-02 3.592332630000000e-02 -1.542056910000000e-02 -7.094274770000000e-02 4.831191080000000e-01 -3.642885210000000e-01
            8.270660060000000e-02 3.592819610000000e-02 7.630234440000000e-02 3.465354020000000e-02 4.824206190000000e-01 -3.645887840000000e-01 -1.540669580000000e-02 -7.096139270000000e-02
            -1.541680390000000e-02 -7.094384490000000e-02 4.824270380000000e-01 -3.645716920000000e-01 8.109563120000000e-02 2.862205810000000e-02 7.908703200000000e-02 3.677976390000000e-02
            4.831108910000000e-01 -3.642970120000000e-01 -1.541260120000000e-02 -7.095243890000000e-02 7.907065889999999e-02 3.677662840000000e-02 8.353545190000000e-02 3.221527050000000e-02
239800667.0000000000 9.472392830000000e-02 3.530872520000000e-02 9.896896950000000e-02 3.278381460000000e-02 -3.383654540000000e-02 -6.507495639999999e-02 3.841732870000000e-01 -4.643782420000000e-01
            9.895220820000000e-02 3.279276290000000e-02 9.299990320000000e-02 3.278414180000000e-02 3.834586050000000e-01 -4.644880590000000e-01 -3.382183370000000e-02 -6.509679829999999e-02
            -3.383011920000000e-02 -6.507217500000000e-02 3.834543130000000e-01 -4.645050270000000e-01 9.728930580000000e-02 2.545797620000000e-02 9.579986230000000e-02 3.389573540000000e-02
            3.841774270000000e-01 -4.643744670000000e-01 -3.383745840000000e-02 -6.507847510000001e-02 9.578781629999999e-02 3.389877440000000e-02 9.972544920000000e-02 2.906686280000000e-02
240300250.0000000000 1.085637330000000e-01 2.627489670000000e-02 1.120176640000000e-01 2.273008340000000e-02 -4.934442710000000e-02 -5.460130690000000e-02 2.660995760000000e-01 -5.385832020000000e-01
            1.120291810000000e-01 2.275252720000000e-02 1.068452700000000e-01 2.375134810000000e-02 2.653619090000000e-01 -5.385373050000000e-01 -4.934752750000000e-02 -5.463444680000000e-02
            -4.933959700000000e-02 -5.460246270000000e-02 2.653785050000000e-01 -5.385209690000000e-01 1.101296280000000e-01 1.528815250000000e-02 1.092539940000000e-01 2.394392860000000e-02
            2.660754450000000e-01 -5.385841760000000e-01 -4.934823130000000e-02 -5.461669120000000e-02 1.092573710000000e-01 2.393288020000000e-02 1.125746850000000e-01 1.888623830000000e-02
240799833.0000000000 1.167841260000000e-01 1.219315750000000e-02 1.192331630000000e-01 8.002624620000001e-03 -6.116256970000000e-02 -4.110454580000000e-02 1.351470360000000e-01 -5.840269400000000e-01
            1.192275970000000e-01 8.011379000000001e-03 1.150526980000000e-01 9.682766890000000e-03 1.344786390000000e-01 -5.838289920000000e-01 -6.115452940000000e-02 -4.112215230000000e-02
            -6.114944130000000e-02 -4.109551560000000e-02 1.344653330000000e-01 -5.838193900000000e-01 1.169886140000000e-01 4.249470840000000e-04 1.167777200000000e-01 9.169911209999999e-03
            1.351554320000000e-01 -5.840232100000000e-01 -6.114881710000000e-02 -4.113834380000000e-02 1.167752500000000e-01 9.159677340000000e-03 1.194092840000000e-01 4.015929530000000e-03
241299416.0000000000 1.178022920000000e-01 -3.911018990000000e-03 1.192123300000000e-01 -8.371919880000000e-03 -6.926642640000000e-02 -2.598281830000000e-02 -2.328284410000000e-03 -5.990377970000000e-01
            1.192077860000000e-01 -8.361543359999999e-03 1.160815160000000e-01 -6.413347390000000e-03 -2.925946050000000e-03 -5.986869700000000e-01 -6.925762530000000e-02 -2.600813600000000e-02
            -6.926204340000000e-02 -2.599003900000000e-02 -2.913380060000000e-03 -5.986983080000000e-01 1.164233830000000e-01 -1.603483300000000e-02 1.169463020000000e-01 -7.328790400000000e-03
            -2.322076850000000e-03 -5.990389070000000e-01 -6.927348360000000e-02 -2.600782170000000e-02 1.169432050000000e-01 -7.322992770000000e-03 1.188396690000000e-01 -1.244350270000000e-02
241798999.0000000000 1.115468160000000e-01 -1.868112670000000e-02 1.120010240000000e-01 -2.303650740000000e-02 -7.412470910000001e-02 -1.005870550000000e-02 -1.399234760000000e-01 -5.828674130000000e-01
            1.119872660000000e-01 -2.305567800000000e-02 1.098283740000000e-01 -2.118754540000000e-02 -1.404141060000000e-01 -5.823791750000000e-01 -7.411975030000000e-02 -1.007322430000000e-02
            -7.411649830000000e-02 -1.004574510000000e-02 -1.404248710000000e-01 -5.823821380000000e-01 1.084911280000000e-01 -3.064312600000000e-02 1.097483210000000e-01 -2.217856700000000e-02
            -1.399409320000000e-01 -5.828541620000000e-01 -7.412587950000001e-02 -1.007231220000000e-02 1.097610670000000e-01 -2.219882460000000e-02 1.109275090000000e-01 -2.705767690000000e-02
242298582.0000000000 9.927569310000001e-02 -2.900954840000000e-02 9.900103990000000e-02 -3.304500540000000e-02 -7.612589230000000e-02 6.501347810000000e-03 -2.710365810000000e-01 -5.357345830000000e-01
            9.898949880000001e-02 -3.303635760000000e-02 9.758091090000000e-02 -3.152420920000000e-02 -2.713970370000000e-01 -5.351769250000000e-01 -7.615053680000000e-02 6.485124280000000e-03
            -7.614571119999999e-02 6.504057570000000e-03 -2.713950120000000e-01 -5.351742930000000e-01 9.468876440000000e-02 -4.033784980000000e-02 9.660979820000000e-02 -3.228778060000000e-02
            -2.710268980000000e-01 -5.357274110000000e-01 -7.615709370000000e-02 6.479053620000000e-03 9.662762970000000e-02 -3.228777790000000e-02 9.709113370000000e-02 -3.673614380000000e-02
242798165.0000000000 8.360239930000000e-02 -3.259580650000000e-02 8.283265040000000e-02 -3.615334470000000e-02 -7.519741100000001e-02 2.381551840000000e-02 -3.887048510000000e-01 -4.591969140000000e-01
            8.284408770000000e-02 -3.614059580000000e-02 8.190378910000000e-02 -3.512569320000000e-02 -3.889230590000000e-01 -4.585716180000000e-01 -7.523676949999999e-02 2.379109970000000e-02
            -7.522388120000000e-02 2.381434130000000e-02 -3.889294740000000e-01 -4.585895670000000e-01 7.773637720000000e-02 -4.285727980000000e-02 8.018446810000000e-02 -3.541780010000000e-02
            -3.887039070000000e-01 -4.592075460000000e-01 -7.521452030000000e-02 2.380118560000000e-02 8.018713040000000e-02 -3.540281610000000e-02 8.012287200000000e-02 -3.926170580000000e-02
243297748.0000000000 6.797210210000000e-02 -2.851743870000000e-02 6.700167170000000e-02 -3.155784660000000e-02 -7.067165270000000e-02 4.183296100000000e-02 -4.860184890000000e-01 -3.564628690000000e-01
            6.699920580000000e-02 -3.155986520000000e-02 6.628409790000001e-02 -3.102678100000000e-02 -4.860990440000000e-01 -3.558233480000000e-01 -7.068334730000000e-02 4.182233800000000e-02
            -7.066911660000000e-02 4.184119910000000e-02 -4.861095060000000e-01 -3.558128180000000e-01 6.119591590000000e-02 -3.739926310000000e-02 6.399525250000000e-02 -3.066322560000000e-02
            -4.860311570000000e-01 -3.564711850000000e-01 -7.068150180000000e-02 4.183285350000000e-02 6.400234670000000e-02 -3.065654070000000e-02 6.359646340000000e-02 -3.379524680000000e-02
243797331.0000000000 5.601977360000000e-02 -1.753573390000000e-02 5.508838800000000e-02 -2.020288670000000e-02 -6.148779720000000e-02 5.983882960000000e-02 -5.566063409999999e-01 -2.327398980000000e-01
            5.507789350000000e-02 -2.019429690000000e-02 5.433273670000000e-02 -2.007357550000000e-02 -5.565145400000000e-01 -2.321296010000000e-01 -6.152088650000000e-02 5.983101780000000e-02
            -6.149098140000000e-02 5.984476310000000e-02 -5.565173720000000e-01 -2.321232510000000e-01 4.881662430000000e-02 -2.485995110000000e-02 5.170613090000000e-02 -1.892579720000000e-02
            -5.565930390000000e-01 -2.327485800000000e-01 -6.150364770000000e-02 5.984083250000000e-02 5.170334380000000e-02 -1.893331280000000e-02 5.119758010000000e-02 -2.126348580000000e-02
244296914.0000000000 5.065702910000000e-02 -2.167565010000000e-03 4.988145570000000e-02 -4.640464040000000e-03 -4.694433130000000e-02 7.623624250000000e-02 -5.954770980000000e-01 -9.530133020000001e-02
            4.988725060000000e-02 -4.632654150000000e-03 4.897875950000000e-02 -4.707391060000000e-03 -5.952564160000000e-01 -9.472712620000000e-02 -4.697379090000000e-02 7.624369840000000e-02
            -4.694443610000000e-02 7.623364530000000e-02 -5.952655260000000e-01 -9.472510850000000e-02 4.349346260000000e-02 -7.984637590000000e-03 4.621848630000000e-02 -2.799540440000000e-03
            -5.954795210000000e-01 -9.530050650000001e-02 -4.696877450000000e-02 7.625276979999999e-02 4.622777890000000e-02 -2.806075460000000e-03 4.586701700000000e-02 -4.357567550000000e-03
244796497.0000000000 5.319428060000000e-02 1.389183540000000e-02 5.262472810000000e-02 1.138977230000000e-02 -2.720643990000000e-02 8.882521940000000e-02 -6.000470620000000e-01 4.728212250000000e-02
            5.261062460000000e-02 1.140593670000000e-02 5.153568810000000e-02 1.133451750000000e-02 -5.997292450000000e-01 4.777643890000000e-02 -2.723541160000000e-02 8.883683280000000e-02
            -2.720026460000000e-02 8.883296320000000e-02 -5.997037320000000e-01 4.776043800000000e-02 4.652037990000000e-02 9.421638720000000e-03 4.883546830000000e-02 1.397208040000000e-02
            -6.000649860000000e-01 4.728169340000000e-02 -2.720801980000000e-02 8.882481990000000e-02 4.882512260000000e-02 1.396698110000000e-02 4.888961890000000e-02 1.305716630000000e-02
245296080.0000000000 6.299036880000000e-02 2.676015890000000e-02 6.251610510000000e-02 2.406829060000000e-02 -3.631323170000000e-03 9.552696650000000e-02 -5.704418030000000e-01 1.859973200000000e-01
            6.252134310000000e-02 2.405952510000000e-02 6.132451140000000e-02 2.419728290000000e-02 -5.700100910000000e-01 1.863808150000000e-01 -3.647180990000000e-03 9.554244100000001e-02
            -3.641616770000000e-03 9.552781130000000e-02 -5.700072660000000e-01 1.863886470000000e-01 5.711957810000000e-02 2.336511210000000e-02 5.880266130000000e-02 2.747909160000000e-02
            -5.704498649999999e-01 1.859825320000000e-01 -3.657113010000000e-03 9.554020520000001e-02 5.880159210000000e-02 2.747161780000000e-02 5.945250050000000e-02 2.700887770000000e-02
245795663.0000000000 7.757825670000000e-02 3.347306710000000e-02 7.703664360000000e-02 3.046274510000000e-02 2.142402990000000e-02 9.509915780000000e-02 -5.093644490000000e-01 3.126442060000000e-01
            7.703276940000001e-02 3.046190240000000e-02 7.591587750000001e-02 3.090732170000000e-02 -5.088516630000000e-01 3.129119000000000e-01 2.140751490000000e-02 9.511505960000000e-02
            2.142357160000000e-02 9.509924280000000e-02 -5.088615560000000e-01 3.129035390000000e-01 7.265533060000000e-02 3.076303270000000e-02 7.364108730000000e-02 3.476321690000000e-02
            -5.093670050000000e-01 3.126351950000000e-01 2.141423470000000e-02 9.511349569999999e-02 7.363194380000000e-02 3.476778220000000e-02 7.501478320000000e-02 3.442610900000000e-02
246295246.0000000000 9.345802700000000e-02 3.265687090000000e-02 9.267606170000001e-02 2.930173890000000e-02 4.534988730000000e-02 8.755365449999999e-02 -4.213381740000000e-01 4.204645310000000e-01
            9.267622900000000e-02 2.931056180000000e-02 9.180162810000000e-02 3.010881180000000e-02 -4.208093170000000e-01 4.206177730000000e-01 4.532407040000000e-02 8.757588710000000e-02
            4.534017290000000e-02 8.756473710000000e-02 -4.208089130000000e-01 4.206139820000000e-01 8.957836380000000e-02 3.027286980000000e-02 8.983220380000000e-02 3.445752330000000e-02
            -4.213380470000000e-01 4.204649520000000e-01 4.532948360000000e-02 8.758441380000000e-02 8.983054960000000e-02 3.443604160000000e-02 9.192961890000000e-02 3.392290790000000e-02
246794829.0000000000 1.071087560000000e-01 2.471171030000000e-02 1.058564600000000e-01 2.106743560000000e-02 6.596267670000000e-02 7.401975330000000e-02 -3.120019870000000e-01 5.045213000000000e-01
            1.058608360000000e-01 2.106108210000000e-02 1.054536150000000e-01 2.215674450000000e-02 -3.114474610000000e-01 5.045382340000000e-01 6.595905550000000e-02 7.402573799999999e-02
            6.596723450000000e-02 7.402465940000000e-02 -3.114573020000000e-01 5.045389310000000e-01 1.041297020000000e-01 2.229018480000000e-02 1.038429690000000e-01 2.697150930000000e-02
            -3.120035960000000e-01 5.045214220000001e-01 6.595434450000000e-02 7.402013880000000e-02 1.038380020000000e-01 2.697763060000000e-02 1.064960600000000e-01 2.595136550000000e-02
247294412.0000000000 1.156225930000000e-01 1.149712360000000e-02 1.137271410000000e-01 7.732101250000000e-03 8.200860080000000e-02 5.617177800000000e-02 -1.873373530000000e-01 5.613739930000000e-01
            1.137433650000000e-01 7.737294320000000e-03 1.139726490000000e-01 8.951990809999999e-03 -1.868306450000000e-01 5.612580900000000e-01 8.201560980000000e-02 5.618324560000000e-02
            8.201038889999999e-02 5.616367830000000e-02 -1.868157950000000e-01 5.612465910000000e-01 1.133823130000000e-01 8.814582470000000e-03 1.127576260000000e-01 1.419981640000000e-02
            -1.873387260000000e-01 5.613647910000000e-01 8.201673830000000e-02 5.618669110000000e-02 1.127479010000000e-01 1.420695700000000e-02 1.157448890000000e-01 1.246408750000000e-02
247793995.0000000000 1.172737010000000e-01 -4.118595170000000e-03 1.146817440000000e-01 -7.790975860000000e-03 9.311403270000000e-02 3.570371850000000e-02 -5.348642890000000e-02 5.887559810000000e-01
            1.146644610000000e-01 -7.783161570000000e-03 1.156292110000000e-01 -6.677067620000000e-03 -5.302665230000000e-02 5.885373910000000e-01 9.311858430000000e-02 3.574665970000000e-02
            9.312298049999999e-02 3.571457100000000e-02 -5.302018910000000e-02 5.885360810000000e-01 1.155471650000000e-01 -7.227199350000000e-03 1.148984120000000e-01 -9.930715970000001e-04
            -5.349684380000000e-02 5.887690870000000e-01 9.313815280000000e-02 3.573463120000000e-02 1.148943830000000e-01 -9.800548840000001e-04 1.179075240000000e-01 -3.573727830000000e-03
248293578.0000000000 1.117321080000000e-01 -1.886940820000000e-02 1.084103840000000e-01 -2.221527870000000e-02 9.952963230000000e-02 1.391644910000000e-02 8.323589530000000e-02 5.854421780000000e-01
            1.084058670000000e-01 -2.221629850000000e-02 1.100953100000000e-01 -2.143106850000000e-02 8.362399210000000e-02 5.851421999999999e-01 9.953377790000000e-02 1.392605840000000e-02
            9.952569230000000e-02 1.391020160000000e-02 8.363104139999999e-02 5.851548880000000e-01 1.102531670000000e-01 -2.246077640000000e-02 1.099601540000000e-01 -1.538146180000000e-02
            8.323217950000000e-02 5.854549420000000e-01 9.953275770000000e-02 1.391740820000000e-02 1.099495240000000e-01 -1.538658130000000e-02 1.125920690000000e-01 -1.880522060000000e-02
248793161.0000000000 1.000420320000000e-01 -2.963641090000000e-02 9.609463579999999e-02 -3.243880390000000e-02 1.015795930000000e-01 -8.612211490000000e-03 2.163178950000000e-01 5.511542500000000e-01
            9.611362960000000e-02 -3.241920570000000e-02 9.839975160000000e-02 -3.218093860000000e-02 2.166223600000000e-01 5.507636480000000e-01 1.015961490000000e-01 -8.604178699999999e-03
            1.015883850000000e-01 -8.612501349999999e-03 2.166239620000000e-01 5.507669290000000e-01 9.861305230000000e-02 -3.366772180000000e-02 9.897598630000000e-02 -2.588638210000000e-02
            2.163209260000000e-01 5.511474170000000e-01 1.015852820000000e-01 -8.596226020000000e-03 9.897305739999999e-02 -2.587547800000000e-02 1.009263540000000e-01 -3.002332610000000e-02
249292744.0000000000 8.459727440000001e-02 -3.397619620000000e-02 8.018683020000000e-02 -3.603670010000000e-02 9.931662440000000e-02 -3.158899730000000e-02 3.388348790000000e-01 4.867882510000000e-01
            8.017932329999999e-02 -3.604297330000000e-02 8.296639879999999e-02 -3.654209770000000e-02 3.390408380000000e-01 4.863641840000000e-01 9.933031290000000e-02 -3.156633660000000e-02
            9.930752560000000e-02 -3.158501250000000e-02 3.390422670000000e-01 4.863546430000000e-01 8.302311190000000e-02 -3.839047800000000e-02 8.432529470000000e-02 -3.013462790000000e-02
            3.388238730000000e-01 4.867771630000000e-01 9.934877220000000e-02 -3.158091760000000e-02 8.433590520000001e-02 -3.013684170000000e-02 8.533703569999999e-02 -3.473836880000000e-02
249792327.0000000000 6.871566250000000e-02 -3.072731020000000e-02 6.403240189999999e-02 -3.195599200000000e-02 9.228260380000000e-02 -5.469544680000000e-02 4.437456250000000e-01 3.949122990000000e-01
            6.404019690000000e-02 -3.196197780000000e-02 6.708127030000000e-02 -3.329423930000000e-02 4.438444800000000e-01 3.944606450000000e-01 9.229052740000000e-02 -5.467969810000000e-02
            9.228277760000000e-02 -5.469002080000000e-02 4.438435390000000e-01 3.944554020000000e-01 6.684133830000000e-02 -3.539139330000000e-02 6.926195979999999e-02 -2.699099740000000e-02
            4.437424670000000e-01 3.949120890000000e-01 9.229989080000001e-02 -5.468263730000000e-02 6.926363939999999e-02 -2.699068840000000e-02 6.915443650000000e-02 -3.173133070000000e-02
250291910.0000000000 5.602048340000000e-02 -2.041739900000000e-02 5.128516180000000e-02 -2.075636910000000e-02 7.968059000000000e-02 -7.704195430000001e-02 5.243433280000001e-01 2.800707640000000e-01
            5.128444640000000e-02 -2.074889020000000e-02 5.439050600000000e-02 -2.296965750000000e-02 5.243325500000000e-01 2.796284900000000e-01 7.970221170000000e-02 -7.704223300000000e-02
            7.969323270000001e-02 -7.704304330000000e-02 5.243330090000000e-01 2.796259730000000e-01 5.377110680000000e-02 -2.517279990000000e-02 5.732687580000000e-02 -1.698512160000000e-02
            5.243482280000000e-01 2.800786050000000e-01 7.969653550000000e-02 -7.703525410000001e-02 5.733728570000000e-02 -1.699793960000000e-02 5.608325390000000e-02 -2.150608240000000e-02
250791493.0000000000 4.956985470000000e-02 -5.266595740000000e-03 4.503566530000000e-02 -4.765028080000000e-03 6.095047650000000e-02 -9.697535820000000e-02 5.751674070000000e-01 1.488572740000000e-01
            4.502931560000000e-02 -4.768803800000000e-03 4.796024270000000e-02 -7.851931090000000e-03 5.750624570000000e-01 1.484215380000000e-01 6.097181640000000e-02 -9.698534239999999e-02
            6.096272750000000e-02 -9.698503579999999e-02 5.750429889999999e-01 1.484152560000000e-01 4.692930870000000e-02 -9.966422169999999e-03 5.154497260000000e-02 -2.355960080000000e-03
            5.751686220000000e-01 1.488652080000000e-01 6.096995110000000e-02 -9.698630900000001e-02 5.153115600000000e-02 -2.362255820000000e-03 4.922820740000000e-02 -6.256951950000000e-03
251291076.0000000000 5.099512460000000e-02 1.111649980000000e-02 4.678799610000000e-02 1.241654110000000e-02 3.637303630000000e-02 -1.122324810000000e-01 5.928178700000000e-01 9.446764159999999e-03
            4.679346860000000e-02 1.240804920000000e-02 4.937773010000000e-02 8.538055290000001e-03 5.926055270000000e-01 9.083316410000000e-03 3.640113740000000e-02 -1.122414680000000e-01
            3.637275460000000e-02 -1.122278320000000e-01 5.926108420000000e-01 9.076729410000000e-03 4.793640140000000e-02 6.698330350000000e-03 5.340602310000000e-02 1.344148150000000e-02
            5.928137580000000e-01 9.457330829999999e-03 3.639099570000000e-02 -1.122341520000000e-01 5.340511980000000e-02 1.343220700000000e-02 5.023282590000000e-02 1.039762800000000e-02
251790659.0000000000 5.990748700000000e-02 2.486617770000000e-02 5.619566380000000e-02 2.683180640000000e-02 7.417423360000000e-03 -1.205557520000000e-01 5.765836070000000e-01 -1.293200970000000e-01
            5.621698110000000e-02 2.681980270000000e-02 5.829058200000000e-02 2.230805350000000e-02 5.763062860000000e-01 -1.296225500000000e-01 7.433217550000000e-03 -1.205704980000000e-01
            7.416928820000000e-03 -1.205782270000000e-01 5.762862150000000e-01 -1.296290030000000e-01 5.652881370000000e-02 2.090022730000000e-02 6.256796460000000e-02 2.653224390000000e-02
            5.765918970000000e-01 -1.293147800000000e-01 7.435424410000000e-03 -1.205724550000000e-01 6.256676000000000e-02 2.651504010000000e-02 5.882588170000000e-02 2.458420150000000e-02
252290242.0000000000 7.412456319999999e-02 3.281585160000000e-02 7.098965120000000e-02 3.528982430000000e-02 -2.340529720000000e-02 -1.205639570000000e-01 5.283179640000000e-01 -2.591172800000000e-01
            7.099521270000000e-02 3.529921170000000e-02 7.251223110000000e-02 3.023737550000000e-02 5.279914910000000e-01 -2.593425390000000e-01 -2.338157470000000e-02 -1.205717540000000e-01
            -2.340917030000000e-02 -1.205632630000000e-01 5.279916170000000e-01 -2.593403600000000e-01 7.057613879999999e-02 2.940055870000000e-02 7.683537999999999e-02 3.385311980000000e-02
            5.283192990000000e-01 -2.591214140000000e-01 -2.339078560000000e-02 -1.205715680000000e-01 7.683109840000001e-02 3.386262070000000e-02 7.284071620000000e-02 3.310595570000000e-02
252789825.0000000000 9.025216630000001e-02 3.323112410000000e-02 8.779578980000000e-02 3.616902620000000e-02 -5.319251220000000e-02 -1.120454830000000e-01 4.519348400000000e-01 -3.729107600000000e-01
            8.779607920000000e-02 3.615452000000000e-02 8.865016689999999e-02 3.065066260000000e-02 4.515584420000000e-01 -3.730397010000000e-01 -5.316467970000000e-02 -1.120560440000000e-01
            -5.318705980000000e-02 -1.120495120000000e-01 4.515810260000000e-01 -3.730537370000000e-01 8.670263390000001e-02 3.053767250000000e-02 9.285949440000001e-02 3.380940530000000e-02
            4.519322220000000e-01 -3.729159250000000e-01 -5.318583290000000e-02 -1.120608990000000e-01 9.286490590000000e-02 3.380513140000000e-02 8.898817710000000e-02 3.421831800000000e-02
253289408.0000000000 1.046845050000000e-01 2.628768340000000e-02 1.029417720000000e-01 2.949878540000000e-02 -7.934067300000000e-02 -9.607980290000000e-02 3.524848100000000e-01 -4.652904720000000e-01
            1.029385420000000e-01 2.950140010000000e-02 1.030856390000000e-01 2.370136140000000e-02 3.521294890000000e-01 -4.653254660000000e-01 -7.933314220000000e-02 -9.610363680000000e-02
            -7.932106529999999e-02 -9.609055170000000e-02 3.521116340000000e-01 -4.653416370000000e-01 1.013386570000000e-01 2.426942470000000e-02 1.071298400000000e-01 2.651088190000000e-02
            3.524823550000000e-01 -4.652912360000000e-01 -7.933383719999999e-02 -9.610911790000000e-02 1.071313840000000e-01 2.651756250000000e-02 1.036161120000000e-01 2.796895320000000e-02
253788991.0000000000 1.143447010000000e-01 1.358255240000000e-02 1.133390730000000e-01 1.697723000000000e-02 -1.001466750000000e-01 -7.449005960000001e-02 2.356047300000000e-01 -5.323574360000000e-01
            1.133479630000000e-01 1.696485440000000e-02 1.127651500000000e-01 1.099215980000000e-02 2.352589750000000e-01 -5.323215520000000e-01 -1.001407080000000e-01 -7.450068670000000e-02
            -1.001604230000000e-01 -7.449996770000000e-02 2.352486600000000e-01 -5.323214010000000e-01 1.114520260000000e-01 1.225384360000000e-02 1.166454340000000e-01 1.364573690000000e-02
            2.356059280000000e-01 -5.323484429999999e-01 -1.001464560000000e-01 -7.452042620000000e-02 1.166367110000000e-01 1.361855650000000e-02 1.136834040000000e-01 1.594228670000000e-02
254288574.0000000000 1.172894480000000e-01 -2.124092910000000e-03 1.170648740000000e-01 1.312427010000000e-03 -1.149099880000000e-01 -4.926330250000000e-02 1.071362070000000e-01 -5.714315080000000e-01
            1.170747400000000e-01 1.311763030000000e-03 1.156887830000000e-01 -4.729285690000000e-03 1.067858200000000e-01 -5.713162020000000e-01 -1.149172200000000e-01 -4.926984650000000e-02
            -1.149130950000000e-01 -4.925848860000000e-02 1.067971540000000e-01 -5.713158060000000e-01 1.150065470000000e-01 -2.874630450000000e-03 1.194955900000000e-01 -2.130277890000000e-03
            1.071232180000000e-01 -5.714083970000000e-01 -1.149193740000000e-01 -4.927136650000000e-02 1.194944870000000e-01 -2.143120390000000e-03 1.172541470000000e-01 8.235510500000000e-04
254788157.0000000000 1.128672190000000e-01 -1.758399490000000e-02 1.134322780000000e-01 -1.423692280000000e-02 -1.236460820000000e-01 -2.202476390000000e-02 -2.691254900000000e-02 -5.807653600000000e-01
            1.134412880000000e-01 -1.425763540000000e-02 1.112713120000000e-01 -2.016532870000000e-02 -2.719596390000000e-02 -5.805808980000000e-01 -1.236469000000000e-01 -2.203076450000000e-02
            -1.236359180000000e-01 -2.202348180000000e-02 -2.718940060000000e-02 -5.805743820000000e-01 1.113947890000000e-01 -1.792353310000000e-02 1.150994270000000e-01 -1.758377180000000e-02
            -2.692120150000000e-02 -5.807585190000000e-01 -1.236358690000000e-01 -2.202069630000000e-02 1.151108010000000e-01 -1.759342270000000e-02 1.136499740000000e-01 -1.422350120000000e-02
255287740.0000000000 1.019016620000000e-01 -2.957800810000000e-02 1.032566090000000e-01 -2.648964540000000e-02 -1.266239760000000e-01 6.159771780000000e-03 -1.601901290000000e-01 -5.595070599999999e-01
            1.032640060000000e-01 -2.649177190000000e-02 1.003247720000000e-01 -3.216930230000000e-02 -1.604162690000000e-01 -5.593031020000000e-01 -1.266382750000000e-01 6.150638000000000e-03
            -1.266394960000000e-01 6.174585290000000e-03 -1.604079660000000e-01 -5.593046640000000e-01 1.013738910000000e-01 -2.969811960000000e-02 1.043433590000000e-01 -2.961059030000000e-02
            -1.601941330000000e-01 -5.595254490000000e-01 -1.266496910000000e-01 6.151793550000000e-03 1.043462530000000e-01 -2.961621150000000e-02 1.036154670000000e-01 -2.600264430000000e-02
255787323.0000000000 8.652788520000000e-02 -3.549211240000000e-02 8.861752100000000e-02 -3.282805370000000e-02 -1.240430040000000e-01 3.466364510000000e-02 -2.859204940000000e-01 -5.080282410000000e-01
            8.860327910000000e-02 -3.281998570000000e-02 8.494915829999999e-02 -3.807697580000000e-02 -2.860899210000000e-01 -5.077679690000000e-01 -1.240432310000000e-01 3.464465490000000e-02
            -1.240436850000000e-01 3.466619010000000e-02 -2.860865560000000e-01 -5.077829659999999e-01 8.700856690000000e-02 -3.565749080000000e-02 8.926159890000000e-02 -3.565285870000000e-02
            -2.859332330000000e-01 -5.080305340000000e-01 -1.240506560000000e-01 3.465011780000000e-02 8.926931200000000e-02 -3.563793450000000e-02 8.923510649999999e-02 -3.196263640000000e-02
256286906.0000000000 6.989150890000000e-02 -3.380383000000000e-02 7.261154450000000e-02 -3.174987220000000e-02 -1.155865640000000e-01 6.292094540000000e-02 -3.970907740000000e-01 -4.280893630000000e-01
            7.262645810000000e-02 -3.174735940000000e-02 6.830526980000000e-02 -3.641308070000000e-02 -3.971856560000000e-01 -4.277951980000000e-01 -1.155944990000000e-01 6.291045810000000e-02
            -1.155836860000000e-01 6.292636300000000e-02 -3.971852610000000e-01 -4.277926580000000e-01 7.135440270000000e-02 -3.431350110000000e-02 7.301581920000000e-02 -3.428448720000000e-02
            -3.970851030000000e-01 -4.280909690000000e-01 -1.155939020000000e-01 6.292682430000000e-02 7.302485540000000e-02 -3.427572810000000e-02 7.358226860000000e-02 -3.062219530000000e-02
256786489.0000000000 5.565396810000000e-02 -2.468112510000000e-02 5.884987760000000e-02 -2.336527000000000e-02 -1.006716910000000e-01 8.997517260000000e-02 -4.867423090000000e-01 -3.234177750000000e-01
            5.884533370000000e-02 -2.336715790000000e-02 5.409012280000000e-02 -2.727431780000000e-02 -4.867617810000000e-01 -3.231393950000000e-01 -1.006929570000000e-01 8.996883140000000e-02
            -1.006743940000000e-01 8.997230620000000e-02 -4.867660800000000e-01 -3.231366280000000e-01 5.800998870000000e-02 -2.580744460000000e-02 5.913919320000000e-02 -2.562925890000000e-02
            -4.867432230000000e-01 -3.234232500000000e-01 -1.006906330000000e-01 8.995487820000000e-02 5.913597170000000e-02 -2.562911760000000e-02 6.023248530000000e-02 -2.208000600000000e-02
257286072.0000000000 4.710678650000000e-02 -9.955977459999999e-03 5.057924880000000e-02 -9.489098939999999e-03 -7.885642910000000e-02 1.140920240000000e-01 -5.489044380000000e-01 -1.998745310000000e-01
            5.057709550000000e-02 -9.498390109999999e-03 4.554012410000000e-02 -1.254698500000000e-02 -5.488537590000000e-01 -1.996119770000000e-01 -7.887033600000000e-02 1.140900860000000e-01
            -7.885302120000000e-02 1.140997720000000e-01 -5.488690870000000e-01 -1.996040460000000e-01 5.017049650000000e-02 -1.192443960000000e-02 5.081763260000000e-02 -1.162117940000000e-02
            -5.489043729999999e-01 -1.998693320000000e-01 -7.886488770000000e-02 1.141009590000000e-01 5.081862520000000e-02 -1.160505650000000e-02 5.237051610000000e-02 -8.197347670000001e-03
257785655.0000000000 4.629252220000000e-02 7.075766800000000e-03 4.977432510000000e-02 6.608697150000000e-03 -5.038206570000000e-02 1.329911040000000e-01 -5.794382890000001e-01 -6.505648990000000e-02
            4.977070060000000e-02 6.618976560000000e-03 4.473686540000000e-02 4.458011510000000e-03 -5.793299360000000e-01 -6.483688890000000e-02 -5.038066140000000e-02 1.329747620000000e-01
            -5.038247740000000e-02 1.329966010000000e-01 -5.793191990000000e-01 -6.482670209999999e-02 4.977222090000000e-02 4.065380020000000e-03 4.998774590000000e-02 4.544448220000000e-03
            -5.794202830000000e-01 -6.506716780000001e-02 -5.039174500000000e-02 1.330018580000000e-01 4.999359170000000e-02 4.546259680000000e-03 5.196644210000000e-02 7.791995390000000e-03
258285238.0000000000 5.335831810000000e-02 2.245146290000000e-02 5.657096240000000e-02 2.113712210000000e-02 -1.670720980000000e-02 1.442562190000000e-01 -5.766787940000000e-01 7.244652729999999e-02
            5.657074490000000e-02 2.111802390000000e-02 5.180315400000000e-02 1.982637460000000e-02 -5.765179170000000e-01 7.264308600000000e-02 -1.669630350000000e-02 1.442490240000000e-01
            -1.670339330000000e-02 1.442471680000000e-01 -5.765355720000001e-01 7.263658539999999e-02 5.690824290000000e-02 1.835874760000000e-02 5.674818980000000e-02 1.902471680000000e-02
            -5.766669610000000e-01 7.244314060000000e-02 -1.671641780000000e-02 1.442500320000000e-01 5.673785690000000e-02 1.901237640000000e-02 5.910912350000000e-02 2.207596010000000e-02
258784821.0000000000 6.648907490000000e-02 3.270221730000000e-02 6.922008260000000e-02 3.068526220000000e-02 1.959991750000000e-02 1.461529260000000e-01 -5.415864200000000e-01 2.042338530000000e-01
            6.921410240000000e-02 3.068330160000000e-02 6.495799070000000e-02 3.009815210000000e-02 -5.414226500000000e-01 2.043743370000000e-01 1.958356210000000e-02 1.461456450000000e-01
            1.959429660000000e-02 1.461429400000000e-01 -5.414234140000000e-01 2.044022230000000e-01 6.984047509999999e-02 2.757040070000000e-02 6.928813630000000e-02 2.848933050000000e-02
            -5.415878520000000e-01 2.042304500000000e-01 1.959564460000000e-02 1.461525140000000e-01 6.928784280000000e-02 2.848419350000000e-02 7.203586610000000e-02 3.131177230000000e-02
259284404.0000000000 8.261863510000000e-02 3.576993190000000e-02 8.464113170000000e-02 3.322916770000000e-02 5.538562910000000e-02 1.381976220000000e-01 -4.773126140000000e-01 3.229518060000000e-01
            8.463337490000000e-02 3.324001470000000e-02 8.105638120000000e-02 3.313312970000000e-02 -4.771222450000000e-01 3.230385600000000e-01 5.537854870000000e-02 1.382208090000000e-01
            5.539898820000000e-02 1.382104670000000e-01 -4.771212400000000e-01 3.230349110000000e-01 8.541562980000000e-02 2.972468660000000e-02 8.452225250000001e-02 3.095196100000000e-02
            -4.773132750000000e-01 3.229455200000000e-01 5.538913950000000e-02 1.382245300000000e-01 8.450773410000000e-02 3.096090470000000e-02 8.761918589999999e-02 3.347612970000000e-02
259783987.0000000000 9.804163230000000e-02 3.122752520000000e-02 9.928134040000000e-02 2.848472710000000e-02 8.770579960000000e-02 1.212784700000000e-01 -3.883535330000000e-01 4.227170590000000e-01
            9.927100660000000e-02 2.847824590000000e-02 9.651295020000000e-02 2.860535740000000e-02 -3.881526240000000e-01 4.227673140000000e-01 8.769858030000000e-02 1.212922730000000e-01
            8.770772740000000e-02 1.212857970000000e-01 -3.881854090000000e-01 4.227656640000000e-01 1.001202020000000e-01 2.454784040000000e-02 9.891864320000000e-02 2.610777070000000e-02
            -3.883657650000000e-01 4.227360090000000e-01 8.769799239999999e-02 1.212888570000000e-01 9.892606890000000e-02 2.612007220000000e-02 1.023110270000000e-01 2.827937770000000e-02
260283570.0000000000 1.095440960000000e-01 2.038185080000000e-02 1.099856460000000e-01 1.771412210000000e-02 1.143231800000000e-01 9.714506730000000e-02 -2.799529510000000e-01 4.991921460000000e-01
            1.099818470000000e-01 1.771201340000000e-02 1.079971240000000e-01 1.774949110000000e-02 -2.797562160000000e-01 4.991852960000000e-01 1.143237220000000e-01 9.717127100000000e-02
            1.143368620000000e-01 9.714533459999999e-02 -2.797791000000000e-01 4.991983020000000e-01 1.107862430000000e-01 1.333153020000000e-02 1.093347750000000e-01 1.530753680000000e-02
            -2.799571130000000e-01 4.991969490000000e-01 1.143248090000000e-01 9.716642440000001e-02 1.093358610000000e-01 1.531193120000000e-02 1.129575920000000e-01 1.705855720000000e-02
260783153.0000000000 1.148171110000000e-01 5.712675640000000e-03 1.145992550000000e-01 3.399349270000000e-03 1.340741160000000e-01 6.797115770000001e-02 -1.576818260000000e-01 5.491852490000000e-01
            1.145844550000000e-01 3.395404510000000e-03 1.132826680000000e-01 3.073219520000000e-03 -1.574890460000000e-01 5.491384240000000e-01 1.340803830000000e-01 6.797186800000000e-02
            1.340750590000000e-01 6.796784920000000e-02 -1.574990230000000e-01 5.491383630000000e-01 1.151985910000000e-01 -1.435201240000000e-03 1.136227510000000e-01 1.014024080000000e-03
            -1.576502730000000e-01 5.491981670000000e-01 1.340773830000000e-01 6.797199630000000e-02 1.136167680000000e-01 1.017379980000000e-03 1.173563410000000e-01 2.317423160000000e-03
261282736.0000000000 1.129030890000000e-01 -9.653214219999999e-03 1.121987840000000e-01 -1.138461630000000e-02 1.465968600000000e-01 3.567085850000000e-02 -2.728778110000000e-02 5.705154930000000e-01
            1.121929190000000e-01 -1.139111420000000e-02 1.113635550000000e-01 -1.227526790000000e-02 -2.715144000000000e-02 5.704552420000000e-01 1.465869810000000e-01 3.568397840000000e-02
            1.465936720000000e-01 3.567722020000000e-02 -2.714653990000000e-02 5.704592490000000e-01 1.124838710000000e-01 -1.659948980000000e-02 1.108870720000000e-01 -1.370037320000000e-02
            -2.728507690000000e-02 5.705339870000000e-01 1.465950600000000e-01 3.567617900000000e-02 1.108851100000000e-01 -1.370325650000000e-02 1.146567110000000e-01 -1.285199820000000e-02
261782319.0000000000 1.042171370000000e-01 -2.245190150000000e-02 1.033199700000000e-01 -2.347355720000000e-02 1.519947200000000e-01 1.779893120000000e-03 1.050083360000000e-01 5.618573680000000e-01
            1.033182200000000e-01 -2.347966210000000e-02 1.027015620000000e-01 -2.507750970000000e-02 1.051396480000000e-01 5.617544970000000e-01 1.520069250000000e-01 1.770599420000000e-03
            1.519941860000000e-01 1.793068430000000e-03 1.051295140000000e-01 5.617503090000000e-01 1.031885260000000e-01 -2.898330440000000e-02 1.016528100000000e-01 -2.564588120000000e-02
            1.050137300000000e-01 5.618568200000000e-01 1.519949680000000e-01 1.780077470000000e-03 1.016462430000000e-01 -2.564679380000000e-02 1.053442430000000e-01 -2.523633240000000e-02
262281902.0000000000 9.058332070000000e-02 -2.990261700000000e-02 8.976525770000000e-02 -3.021662000000000e-02 1.503877840000000e-01 -3.272457050000000e-02 2.326517540000000e-01 5.229076780000000e-01
            8.977734090000000e-02 -3.020007130000000e-02 8.906307800000000e-02 -3.253549520000000e-02 2.327169170000000e-01 5.228036790000000e-01 1.503772240000000e-01 -3.270194160000000e-02
            1.503755310000000e-01 -3.272096270000000e-02 2.327247940000000e-01 5.228079720000000e-01 8.914525290000000e-02 -3.588440530000000e-02 8.778744710000000e-02 -3.214287630000000e-02
            2.326509070000000e-01 5.229191220000000e-01 1.503816410000000e-01 -3.271574180000000e-02 8.777042409999999e-02 -3.215589030000000e-02 9.129931149999999e-02 -3.212519670000000e-02
262781485.0000000000 7.489983990000000e-02 -3.021609770000000e-02 7.447587400000000e-02 -2.987934660000000e-02 1.415482420000000e-01 -6.690772120000001e-02 3.485521430000000e-01 4.548808990000000e-01
            7.448675220000001e-02 -2.989903840000000e-02 7.337407560000000e-02 -3.284519660000000e-02 3.485969790000000e-01 4.547623670000000e-01 1.415537120000000e-01 -6.689056850000000e-02
            1.415486160000000e-01 -6.689508700000001e-02 3.485792740000000e-01 4.547656440000000e-01 7.333142989999999e-02 -3.557848540000000e-02 7.216860890000000e-02 -3.154334260000000e-02
            3.485526370000000e-01 4.548796930000000e-01 1.415734960000000e-01 -6.689962960000000e-02 7.217374009999999e-02 -3.155877600000000e-02 7.549055440000001e-02 -3.182040560000000e-02
263281068.0000000000 6.073626950000000e-02 -2.315325920000000e-02 6.090295180000000e-02 -2.237756280000000e-02 1.250678280000000e-01 -9.955965600000000e-02 4.456617020000000e-01 3.607803390000000e-01
            6.091237520000000e-02 -2.236928420000000e-02 5.920327720000000e-02 -2.579066710000000e-02 4.456676960000000e-01 3.606765150000000e-01 1.250760740000000e-01 -9.956118350000000e-02
            1.250553600000000e-01 -9.956575920000001e-02 4.456867420000000e-01 3.606838190000000e-01 5.926992130000000e-02 -2.793471150000000e-02 5.833728100000000e-02 -2.368851490000000e-02
            4.456677720000000e-01 3.607753730000000e-01 1.250778520000000e-01 -9.956895809999999e-02 5.832243120000000e-02 -2.368068840000000e-02 6.139100660000000e-02 -2.417804440000000e-02
263780651.0000000000 5.141962830000000e-02 -1.017056360000000e-02 5.232538490000000e-02 -9.186461150000000e-03 1.005471460000000e-01 -1.288525480000000e-01 5.176554260000000e-01 2.457947940000000e-01
            5.232969750000000e-02 -9.190751640000000e-03 4.990537690000000e-02 -1.279392910000000e-02 5.176390110000000e-01 2.456816790000000e-01 1.005526940000000e-01 -1.288419880000000e-01
            1.005414770000000e-01 -1.288404410000000e-01 5.176358620000000e-01 2.456844830000000e-01 5.028692620000000e-02 -1.451512560000000e-02 4.958188520000000e-02 -1.010307500000000e-02
            5.176602380000001e-01 2.457851170000000e-01 1.005481720000000e-01 -1.288518500000000e-01 4.957485040000000e-02 -1.009357300000000e-02 5.241236400000000e-02 -1.074685140000000e-02
264280234.0000000000 4.926369250000000e-02 5.752686590000000e-03 5.095273660000000e-02 6.665775400000000e-03 6.834995150000001e-02 -1.522516280000000e-01 5.597621290000000e-01 1.169149100000000e-01
            5.095954660000000e-02 6.671057320000000e-03 4.776374310000000e-02 3.111587720000000e-03 5.597188340000000e-01 1.168295230000000e-01 6.836659770000000e-02 -1.522536170000000e-01
            6.835597260000000e-02 -1.522500520000000e-01 5.597238610000000e-01 1.168206690000000e-01 4.860107310000000e-02 1.655162780000000e-03 4.808199630000000e-02 6.187482170000000e-03
            5.597540850000000e-01 1.169165410000000e-01 6.835744700000000e-02 -1.522442570000000e-01 4.808974530000000e-02 6.185831670000000e-03 5.071090810000000e-02 5.421340690000000e-03
264779817.0000000000 5.481679650000000e-02 2.082482210000000e-02 5.720517330000000e-02 2.140797470000000e-02 2.999621250000000e-02 -1.672114260000000e-01 5.695702980000000e-01 -1.761833230000000e-02
            5.720819810000000e-02 2.141506660000000e-02 5.332483580000000e-02 1.819900100000000e-02 5.695296660000000e-01 -1.766333770000000e-02 2.999863170000000e-02 -1.671997830000000e-01
            2.998206960000000e-02 -1.672068020000000e-01 5.695331750000000e-01 -1.766445560000000e-02 5.465133200000000e-02 1.672458900000000e-02 5.428469520000000e-02 2.137053930000000e-02
            5.695770489999999e-01 -1.760669320000000e-02 2.999889180000000e-02 -1.672011240000000e-01 5.429686960000000e-02 2.138673910000000e-02 5.675841620000000e-02 2.050224760000000e-02
265279399.0000000000 6.670755239999999e-02 3.153312180000000e-02 6.962929299999999e-02 3.157751320000000e-02 -1.183332830000000e-02 -1.717005020000000e-01 5.472987950000000e-01 -1.494450070000000e-01
            6.963676760000000e-02 3.157771820000000e-02 6.521728150000000e-02 2.888750790000000e-02 5.472542370000000e-01 -1.494902980000000e-01 -1.182833460000000e-02 -1.716814890000000e-01
            -1.183553480000000e-02 -1.716828200000000e-01 5.472602510000000e-01 -1.494871000000000e-01 6.697873400000000e-02 2.720915230000000e-02 6.676587959999999e-02 3.200287000000000e-02
            5.472981250000000e-01 -1.494414950000000e-01 -1.184449070000000e-02 -1.716893070000000e-01 6.676742590000000e-02 3.199884430000000e-02 6.908168910000000e-02 3.098871900000000e-02
265778982.0000000000 8.204199470000000e-02 3.551344140000000e-02 8.532494050000000e-02 3.491036550000000e-02 -5.371968670000000e-02 -1.649923000000000e-01 4.953496710000000e-01 -2.711012920000000e-01
            8.533709670000000e-02 3.491328020000000e-02 8.054170210000000e-02 3.286754960000000e-02 4.953000210000000e-01 -2.711185630000000e-01 -5.373029860000000e-02 -1.649887470000000e-01
            -5.373593090000000e-02 -1.649771600000000e-01 4.953042410000000e-01 -2.711137400000000e-01 8.262085910000000e-02 3.078044170000000e-02 8.256024090000000e-02 3.577016190000000e-02
            4.953559420000000e-01 -2.711002690000000e-01 -5.373030810000000e-02 -1.649725670000000e-01 8.257745020000000e-02 3.577808360000000e-02 8.472712550000000e-02 3.456293180000000e-02
266278565.0000000000 9.733682500000000e-02 3.209995200000000e-02 1.007752570000000e-01 3.080815870000000e-02 -9.231611070000000e-02 -1.477683710000000e-01 4.176201790000000e-01 -3.764583710000000e-01
            1.007867200000000e-01 3.079821450000000e-02 9.584149800000000e-02 2.943709220000000e-02 4.176047170000000e-01 -3.764468720000000e-01 -9.231677600000000e-02 -1.477675240000000e-01
            -9.231737790000000e-02 -1.477757860000000e-01 4.175916800000000e-01 -3.764569770000000e-01 9.803262320000000e-02 2.684416530000000e-02 9.822455670000001e-02 3.206322420000000e-02
            4.176408940000000e-01 -3.764427510000000e-01 -9.231145490000001e-02 -1.477643970000000e-01 9.821329510000000e-02 3.205685770000000e-02 1.001513430000000e-01 3.061818530000000e-02
266778148.0000000000 1.093078880000000e-01 2.220938640000000e-02 1.127174610000000e-01 2.027709660000000e-02 -1.249434410000000e-01 -1.217881870000000e-01 3.189188190000000e-01 -4.607906830000000e-01
            1.127139140000000e-01 2.028262760000000e-02 1.078193980000000e-01 1.955956630000000e-02 3.189161020000000e-01 -4.607926510000000e-01 -1.249529670000000e-01 -1.217912420000000e-01
            -1.249570590000000e-01 -1.217893650000000e-01 3.189055190000000e-01 -4.607905380000000e-01 1.098960460000000e-01 1.644614880000000e-02 1.104169320000000e-01 2.192295840000000e-02
            3.189291210000000e-01 -4.607853110000000e-01 -1.249457540000000e-01 -1.217987050000000e-01 1.104159820000000e-01 2.190134020000000e-02 1.120023990000000e-01 2.021594820000000e-02
267277731.0000000000 1.154977390000000e-01 8.119560190000000e-03 1.187434050000000e-01 5.613917410000000e-03 -1.500040340000000e-01 -8.936855350000000e-02 2.043812490000000e-01 -5.205943420000000e-01
            1.187573960000000e-01 5.604303840000000e-03 1.140226050000000e-01 5.466395300000000e-03 2.043784860000000e-01 -5.205935760000000e-01 -1.499945010000000e-01 -8.937634849999999e-02
            -1.500039400000000e-01 -8.936108680000000e-02 2.043797330000000e-01 -5.206073390000000e-01 1.158077100000000e-01 1.860071080000000e-03 1.167934770000000e-01 7.529064880000000e-03
            2.043815670000000e-01 -5.205962130000000e-01 -1.499906370000000e-01 -8.936467530000000e-02 1.167895170000000e-01 7.543783270000000e-03 1.178869810000000e-01 5.655914330000000e-03
267777314.0000000000 1.147378600000000e-01 -7.195693930000000e-03 1.177440930000000e-01 -1.020117800000000e-02 -1.668066090000000e-01 -5.275271970000000e-02 7.945820970000000e-02 -5.532671430000000e-01
            1.177384130000000e-01 -1.019921310000000e-02 1.132662460000000e-01 -9.843574759999999e-03 7.945573790000000e-02 -5.532676650000000e-01 -1.667913750000000e-01 -5.274722460000000e-02
            -1.667968500000000e-01 -5.274591870000000e-02 7.947131630000000e-02 -5.532785030000000e-01 1.145768160000000e-01 -1.380843310000000e-02 1.161841090000000e-01 -8.049855979999999e-03
            7.947088530000000e-02 -5.532781980000000e-01 -1.668043000000000e-01 -5.275784790000000e-02 1.161816560000000e-01 -8.056718990000000e-03 1.166524620000000e-01 -1.002236490000000e-02
268276897.0000000000 1.071273760000000e-01 -2.055835880000000e-02 1.098629050000000e-01 -2.396687360000000e-02 -1.752874470000000e-01 -1.380465730000000e-02 -5.004967620000000e-02 -5.570128250000000e-01
            1.098634090000000e-01 -2.396809320000000e-02 1.056711930000000e-01 -2.321607250000000e-02 -5.004172300000000e-02 -5.570296810000001e-01 -1.752919900000000e-01 -1.381157260000000e-02
            -1.752822550000000e-01 -1.380894610000000e-02 -5.004211930000000e-02 -5.570354650000000e-01 1.064167940000000e-01 -2.735747360000000e-02 1.087180630000000e-01 -2.167848120000000e-02
            -5.005515480000000e-02 -5.570250050000000e-01 -1.752803440000000e-01 -1.380494800000000e-02 1.087259420000000e-01 -2.166944950000000e-02 1.084899290000000e-01 -2.355960820000000e-02
268776480.0000000000 9.426164290000000e-02 -2.910227530000000e-02 9.670281670000000e-02 -3.283328450000000e-02 -1.755243690000000e-01 2.611069500000000e-02 -1.777940210000000e-01 -5.309992609999999e-01
            9.667749920000000e-02 -3.282216880000000e-02 9.280458100000000e-02 -3.175513650000000e-02 -1.777769880000000e-01 -5.310295730000000e-01 -1.755181380000000e-01 2.610283390000000e-02
            -1.755296290000000e-01 2.610511750000000e-02 -1.777761660000000e-01 -5.310417300000000e-01 9.291316099999999e-02 -3.589932020000000e-02 9.595615320000001e-02 -3.052041770000000e-02
            -1.777987010000000e-01 -5.310043770000000e-01 -1.755252800000000e-01 2.611150900000000e-02 9.596118670000001e-02 -3.051999510000000e-02 9.497547560000000e-02 -3.210197020000000e-02
269276063.0000000000 7.874475330000000e-02 -3.083637620000000e-02 8.087924959999999e-02 -3.485778090000000e-02 -1.674271940000000e-01 6.582153720000000e-02 -2.969131300000000e-01 -4.756894160000000e-01
            8.087161460000000e-02 -3.486527950000000e-02 7.727972460000000e-02 -3.350443440000000e-02 -2.969035870000000e-01 -4.757086640000000e-01 -1.674224660000000e-01 6.580453670000000e-02
            -1.674162190000000e-01 6.582083499999999e-02 -2.969073680000000e-01 -4.757119320000000e-01 7.681233429999999e-02 -3.742908160000000e-02 8.055106020000000e-02 -3.262368940000000e-02
            -2.969174820000000e-01 -4.756806100000000e-01 -1.674180260000000e-01 6.581732999999999e-02 8.054229910000001e-02 -3.261015590000000e-02 7.887560540000001e-02 -3.362796040000000e-02
269775646.0000000000 6.400593920000000e-02 -2.515020700000000e-02 6.584462369999999e-02 -2.948269110000000e-02 -1.506084310000000e-01 1.039726130000000e-01 -4.003333650000000e-01 -3.932722800000000e-01
            6.584647350000000e-02 -2.949074930000000e-02 6.255960820000001e-02 -2.782584720000000e-02 -4.003222830000000e-01 -3.933106030000000e-01 -1.506152310000000e-01 1.039679230000000e-01
            -1.506112860000000e-01 1.039733030000000e-01 -4.003138870000000e-01 -3.933340420000000e-01 6.158894950000000e-02 -3.139469870000000e-02 6.585167490000000e-02 -2.737516490000000e-02
            -4.003235650000000e-01 -3.932746270000000e-01 -1.506063080000000e-01 1.039648890000000e-01 6.582615300000000e-02 -2.738207760000000e-02 6.365555890000001e-02 -2.759030480000000e-02
270275229.0000000000 5.349038580000000e-02 -1.316146010000000e-02 5.501485160000000e-02 -1.779330100000000e-02 -1.247690980000000e-01 1.386405150000000e-01 -4.813285470000000e-01 -2.880751600000000e-01
            5.501038850000000e-02 -1.781168030000000e-02 5.204221260000000e-02 -1.582788710000000e-02 -4.813357450000000e-01 -2.881366950000000e-01 -1.247594670000000e-01 1.386357450000000e-01
            -1.247762600000000e-01 1.386389590000000e-01 -4.813441810000000e-01 -2.881297390000000e-01 5.072281450000000e-02 -1.891776510000000e-02 5.524883010000000e-02 -1.588557290000000e-02
            -4.813451920000000e-01 -2.880770530000000e-01 -1.247744270000000e-01 1.386350700000000e-01 5.525713640000000e-02 -1.587555170000000e-02 5.276751120000000e-02 -1.510628990000000e-02
270774812.0000000000 4.977395520000000e-02 2.465731320000000e-03 5.090704010000000e-02 -2.483707820000000e-03 -9.019547700000000e-02 1.672481680000000e-01 -5.346053760000000e-01 -1.664467600000000e-01
            5.088569650000000e-02 -2.480789270000000e-03 4.833234840000000e-02 -2.095865850000000e-04 -5.346184620000000e-01 -1.665087170000000e-01 -9.020062750000001e-02 1.672396840000000e-01
            -9.020518299999999e-02 1.672465570000000e-01 -5.346169380000000e-01 -1.665082920000000e-01 4.681441040000000e-02 -2.726594370000000e-03 5.131017430000000e-02 -7.839702910000000e-04
            -5.345903260000000e-01 -1.664517300000000e-01 -9.018305410000001e-02 1.672417270000000e-01 5.131451020000000e-02 -7.865878939999999e-04 4.885565040000000e-02 1.080234080000000e-03
271274395.0000000000 5.382781000000000e-02 1.806368860000000e-02 5.443503890000000e-02 1.283889310000000e-02 -4.828338670000000e-02 1.869848340000000e-01 -5.569008710000000e-01 -3.611565760000000e-02
            5.441744760000000e-02 1.283653930000000e-02 5.238703340000000e-02 1.539116370000000e-02 -5.569394009999999e-01 -3.619328060000000e-02 -4.827274320000000e-02 1.869731430000000e-01
            -4.829122520000000e-02 1.869794230000000e-01 -5.569297270000000e-01 -3.619959950000000e-02 5.081057890000000e-02 1.343043200000000e-02 5.494151370000000e-02 1.432253760000000e-02
            -5.568788190000000e-01 -3.611406740000000e-02 -4.827452170000000e-02 1.869852010000000e-01 5.492314140000000e-02 1.433203350000000e-02 5.284353470000000e-02 1.724406500000000e-02
271773978.0000000000 6.465123780000000e-02 2.996483450000000e-02 6.462111470000000e-02 2.452648400000000e-02 -1.689471550000000e-03 1.955126830000000e-01 -5.474964080000000e-01 9.467401220000000e-02
            6.462104230000000e-02 2.452257000000000e-02 6.321571160000000e-02 2.729698450000000e-02 -5.475517340000000e-01 9.459234930000000e-02 -1.700715610000000e-03 1.955068830000000e-01
            -1.700061390000000e-03 1.955232060000000e-01 -5.475645970000000e-01 9.457333720000000e-02 6.174648130000000e-02 2.587015990000000e-02 6.514899900000000e-02 2.584741440000000e-02
            -5.474997600000000e-01 9.466339240000000e-02 -1.679704500000000e-03 1.955129460000000e-01 6.515058770000000e-02 2.585780550000000e-02 6.375972260000000e-02 2.968413310000000e-02
272273561.0000000000 7.965319999999999e-02 3.548913280000000e-02 7.891833580000000e-02 2.998549120000000e-02 4.602159140000000e-02 1.917000840000000e-01 -5.080499040000001e-01 2.182652550000000e-01
            7.890920090000000e-02 2.997716680000000e-02 7.823472190000000e-02 3.282485930000000e-02 -5.081170030000000e-01 2.182015860000000e-01 4.601763980000000e-02 1.916766430000000e-01
            4.601017080000000e-02 1.916755460000000e-01 -5.081172250000000e-01 2.182081490000000e-01 7.699967620000001e-02 3.185600830000000e-02 7.941875380000001e-02 3.119902250000000e-02
            -5.080329179999999e-01 2.182690390000000e-01 4.601869340000000e-02 1.916820590000000e-01 7.942586440000000e-02 3.119956360000000e-02 7.901655450000000e-02 3.568700900000000e-02
272773144.0000000000 9.543071340000001e-02 3.357379380000000e-02 9.388273740000000e-02 2.817136810000000e-02 9.111356360000000e-02 1.757838680000000e-01 -4.418433670000000e-01 3.282403230000000e-01
            9.389442490000000e-02 2.816474440000000e-02 9.399159470000000e-02 3.090211590000000e-02 -4.419717530000000e-01 3.282015620000000e-01 9.112133900000000e-02 1.757836270000000e-01
            9.112128650000000e-02 1.757936670000000e-01 -4.419612670000000e-01 3.281928740000000e-01 9.307769510000000e-02 3.029588430000000e-02 9.439175869999999e-02 2.935363660000000e-02
            -4.418323320000000e-01 3.282661820000000e-01 9.110592570000001e-02 1.757786980000000e-01 9.437728180000000e-02 2.935767660000000e-02 9.509660410000000e-02 3.411718840000000e-02
273272727.0000000000 1.085162590000000e-01 2.481719740000000e-02 1.062153250000000e-01 1.973287780000000e-02 1.304529380000000e-01 1.494229430000000e-01 -3.532324150000000e-01 4.195025450000000e-01
            1.062104250000000e-01 1.974216110000000e-02 1.070978280000000e-01 2.215113450000000e-02 -3.533669850000000e-01 4.194919620000000e-01 1.304652210000000e-01 1.493971650000000e-01
            1.304686910000000e-01 1.494142540000000e-01 -3.533697670000000e-01 4.194895490000000e-01 1.065383370000000e-01 2.179747300000000e-02 1.067038250000000e-01 2.096617970000000e-02
            -3.532288510000000e-01 4.195048010000000e-01 1.304623290000000e-01 1.494015720000000e-01 1.067145340000000e-01 2.095430490000000e-02 1.085528660000000e-01 2.563004750000000e-02
273772310.0000000000 1.162678010000000e-01 1.121655120000000e-02 1.132687250000000e-01 6.676751920000000e-03 1.618865200000000e-01 1.148981710000000e-01 -2.470079570000000e-01 4.881716620000000e-01
            1.132757650000000e-01 6.679025870000000e-03 1.148538170000000e-01 8.535573620000000e-03 -2.471364510000000e-01 4.881919390000000e-01 1.618770720000000e-01 1.148717170000000e-01
            1.618775340000000e-01 1.148855370000000e-01 -2.471355170000000e-01 4.881789450000000e-01 1.146982210000000e-01 8.338730950000000e-03 1.138495230000000e-01 7.958345909999999e-03
            -2.469906530000000e-01 4.881712520000000e-01 1.618806410000000e-01 1.148788300000000e-01 1.138541860000000e-01 7.958364500000000e-03 1.167018200000000e-01 1.218668920000000e-02
274271893.0000000000 1.171504240000000e-01 -4.386659040000000e-03 1.136399850000000e-01 -8.183232860000000e-03 1.842437630000000e-01 7.470658630000000e-02 -1.282784200000000e-01 5.312985310000000e-01
            1.136413910000000e-01 -8.197446610000001e-03 1.157597240000000e-01 -7.058551190000000e-03 -1.284224120000000e-01 5.313370390000000e-01 1.842430330000000e-01 7.469300390000000e-02
            1.842366190000000e-01 7.471383769999999e-02 -1.284145840000000e-01 5.313411139999999e-01 1.159862160000000e-01 -7.166126710000000e-03 1.143566640000000e-01 -6.821114310000000e-03
            -1.282733280000000e-01 5.313036230000000e-01 1.842339960000000e-01 7.469147740000000e-02 1.143566320000000e-01 -6.812298340000000e-03 1.179637290000000e-01 -3.340952480000000e-03
274771476.0000000000 1.110168900000000e-01 -1.875410860000000e-02 1.072284300000000e-01 -2.173252770000000e-02 1.971502710000000e-01 3.103079390000000e-02 -2.587797400000000e-03 5.466605080000000e-01
            1.072240400000000e-01 -2.172313170000000e-02 1.096067890000000e-01 -2.144796810000000e-02 -2.724640880000000e-03 5.467381520000000e-01 1.971341160000000e-01 3.102004620000000e-02
            1.971377600000000e-01 3.104440820000000e-02 -2.748017220000000e-03 5.467403350000000e-01 1.102312610000000e-01 -2.158360450000000e-02 1.081635930000000e-01 -2.030337580000000e-02
            -2.582038680000000e-03 5.466644180000000e-01 1.971395800000000e-01 3.102350310000000e-02 1.081669800000000e-01 -2.029335460000000e-02 1.122092800000000e-01 -1.773910020000000e-02
275271059.0000000000 9.906481200000000e-02 -2.891567700000000e-02 9.524021370000001e-02 -3.101895090000000e-02 2.005154400000000e-01 -1.431092630000000e-02 1.240257610000000e-01 5.329713960000000e-01
            9.523683910000000e-02 -3.101879920000000e-02 9.764407370000000e-02 -3.161628920000000e-02 1.238798720000000e-01 5.331013990000000e-01 2.005038010000000e-01 -1.431695940000000e-02
            2.005042180000000e-01 -1.430617430000000e-02 1.238821610000000e-01 5.330960720000000e-01 9.863393140000000e-02 -3.184809790000000e-02 9.648795709999999e-02 -2.959052650000000e-02
            1.240069500000000e-01 5.329765560000000e-01 2.005135660000000e-01 -1.433201580000000e-02 9.648063200000000e-02 -2.958933330000000e-02 1.006181020000000e-01 -2.800829320000000e-02
275770642.0000000000 8.369617040000001e-02 -3.261338680000000e-02 8.009720900000000e-02 -3.392337290000000e-02 1.942453270000000e-01 -5.985795790000000e-02 2.448492250000000e-01 4.900747600000000e-01
            8.011163000000000e-02 -3.394265970000000e-02 8.230469040000001e-02 -3.529602530000000e-02 2.447559190000000e-01 4.902424980000000e-01 1.942435640000000e-01 -5.985840720000000e-02
            1.942527790000000e-01 -5.986030130000000e-02 2.447355910000000e-01 4.902408810000000e-01 8.360145519999999e-02 -3.573339860000000e-02 8.171377489999999e-02 -3.259757480000000e-02
            2.448423680000000e-01 4.900922820000000e-01 1.942330540000000e-01 -5.986542440000000e-02 8.171826580000000e-02 -3.261290850000000e-02 8.557824790000000e-02 -3.190119550000000e-02
276270225.0000000000 6.823677440000001e-02 -2.888101750000000e-02 6.507924200000000e-02 -2.957823320000000e-02 1.780661550000000e-01 -1.040007910000000e-01 3.529387420000000e-01 4.194936830000000e-01
            6.508168810000001e-02 -2.958495940000000e-02 6.684411540000000e-02 -3.159038330000000e-02 3.528706770000000e-01 4.196923850000000e-01 1.780423850000000e-01 -1.040069750000000e-01
            1.780569110000000e-01 -1.039916980000000e-01 3.528651900000000e-01 4.196894410000000e-01 6.842291000000000e-02 -3.229642310000000e-02 6.706948220000000e-02 -2.848609490000000e-02
            3.529495480000000e-01 4.195070880000000e-01 1.780266750000000e-01 -1.039908570000000e-01 6.706486480000000e-02 -2.849167900000000e-02 7.039720550000000e-02 -2.845082720000000e-02
276769808.0000000000 5.616242160000000e-02 -1.843352630000000e-02 5.356355410000000e-02 -1.868554060000000e-02 1.516626720000000e-01 -1.446142320000000e-01 4.414104440000000e-01 3.247325570000000e-01
            5.356137730000000e-02 -1.868780070000000e-02 5.477136720000000e-02 -2.110901180000000e-02 4.413942880000000e-01 3.249405970000000e-01 1.516478740000000e-01 -1.446185150000000e-01
            1.516634190000000e-01 -1.446155770000000e-01 4.413990070000000e-01 3.249373620000000e-01 5.654736810000000e-02 -2.214410320000000e-02 5.587027310000000e-02 -1.796625170000000e-02
            4.414283100000000e-01 3.247330910000000e-01 1.516355190000000e-01 -1.446288480000000e-01 5.588481590000000e-02 -1.797682540000000e-02 5.850392290000000e-02 -1.831172450000000e-02
277269391.0000000000 5.031997080000000e-02 -3.525938660000000e-03 4.832209290000000e-02 -3.592819250000000e-03 1.153379460000000e-01 -1.790554490000000e-01 5.045032950000000e-01 2.113813070000000e-01
            4.832612240000000e-02 -3.604741260000000e-03 4.892622940000000e-02 -6.219938540000000e-03 5.045286550000000e-01 2.116091530000000e-01 1.153351060000000e-01 -1.790534640000000e-01
            1.153450210000000e-01 -1.790660940000000e-01 5.045233090000000e-01 2.116091850000000e-01 5.080251030000000e-02 -7.635524120000000e-03 5.086625220000000e-02 -3.397363860000000e-03
            5.045022290000000e-01 2.113803140000000e-01 1.153236760000000e-01 -1.790585950000000e-01 5.086460740000000e-02 -3.388520320000000e-03 5.274928150000000e-02 -3.775969430000000e-03
277768974.0000000000 5.209230740000000e-02 1.233801630000000e-02 5.061632270000000e-02 1.222141810000000e-02 7.043789089999999e-02 -2.042883020000000e-01 5.382571610000000e-01 8.664540830000000e-02
            5.061796170000000e-02 1.221099770000000e-02 5.071229900000000e-02 9.644263020000000e-03 5.383434300000000e-01 8.686622860000000e-02 7.042651190000000e-02 -2.042741560000000e-01
            7.044012090000000e-02 -2.042869300000000e-01 5.383417109999999e-01 8.687398289999999e-02 5.256456960000000e-02 7.840574420000000e-03 5.326908360000000e-02 1.183872340000000e-02
            5.382664730000000e-01 8.665850780000001e-02 7.041592340000000e-02 -2.042886660000000e-01 5.324399280000000e-02 1.184679700000000e-02 5.452051950000000e-02 1.168616880000000e-02
278268557.0000000000 6.099129370000000e-02 2.544855620000000e-02 5.988894380000000e-02 2.511668540000000e-02 1.956282740000000e-02 -2.176773910000000e-01 5.411852539999999e-01 -4.151359770000000e-02
            5.989146280000000e-02 2.512794290000000e-02 5.961213900000000e-02 2.275487450000000e-02 5.413457270000001e-01 -4.130868690000000e-02 1.953720720000000e-02 -2.176685740000000e-01
            1.956714980000000e-02 -2.176817470000000e-01 5.413338040000000e-01 -4.131201300000000e-02 6.131687200000000e-02 2.056316430000000e-02 6.248332850000000e-02 2.413952300000000e-02
            5.411934870000000e-01 -4.151907180000000e-02 1.954508380000000e-02 -2.176534520000000e-01 6.248225440000000e-02 2.413006580000000e-02 6.327722860000000e-02 2.440817520000000e-02
278768140.0000000000 7.478860910000000e-02 3.285120110000000e-02 7.387362980000001e-02 3.224981570000000e-02 -3.360500090000000e-02 -2.176598100000000e-01 5.141336120000000e-01 -1.654810900000000e-01
            7.386604610000000e-02 3.223746300000000e-02 7.339924289999999e-02 3.014451710000000e-02 5.143310320000000e-01 -1.652945330000000e-01 -3.362274070000000e-02 -2.176635820000000e-01
            -3.361820300000000e-02 -2.176711730000000e-01 5.143214980000000e-01 -1.652835490000000e-01 7.487375260000000e-02 2.762996990000000e-02 7.624871470000000e-02 3.063517310000000e-02
            5.141123130000000e-01 -1.654544460000000e-01 -3.364297140000000e-02 -2.176522860000000e-01 7.624258870000000e-02 3.064702240000000e-02 7.682156720000000e-02 3.147947180000000e-02
279267723.0000000000 9.025554600000001e-02 3.306846770000000e-02 8.934606270000001e-02 3.221775630000000e-02 -8.510844519999999e-02 -2.041672710000000e-01 4.597261660000000e-01 -2.785366020000000e-01
            8.933292549999999e-02 3.220691580000000e-02 8.888859970000000e-02 3.037090280000000e-02 4.599512860000000e-01 -2.783978080000000e-01 -8.512148710000000e-02 -2.041644430000000e-01
            -8.510486620000000e-02 -2.041714650000000e-01 4.599545400000000e-01 -2.784150590000000e-01 9.000287890000000e-02 2.758398090000000e-02 9.132024900000001e-02 3.006460550000000e-02
            4.597247860000000e-01 -2.785317110000000e-01 -8.511749420000000e-02 -2.041487480000000e-01 9.133140170000000e-02 3.005045350000000e-02 9.194757410000000e-02 3.145179120000000e-02
279767306.0000000000 1.039308750000000e-01 2.630254990000000e-02 1.028638330000000e-01 2.528906710000000e-02 -1.313066380000000e-01 -1.785188920000000e-01 3.817765920000000e-01 -3.753362120000000e-01
            1.028686570000000e-01 2.528503400000000e-02 1.025739970000000e-01 2.360366290000000e-02 3.820517140000000e-01 -3.752644180000000e-01 -1.313116950000000e-01 -1.784917880000000e-01
            -1.313140920000000e-01 -1.785107580000000e-01 3.820433670000000e-01 -3.752677390000000e-01 1.032916750000000e-01 2.066003990000000e-02 1.043393120000000e-01 2.270122250000000e-02
            3.817741470000000e-01 -3.753457940000000e-01 -1.313061300000000e-01 -1.784966820000000e-01 1.043389180000000e-01 2.268790560000000e-02 1.052110720000000e-01 2.453172690000000e-02
280266889.0000000000 1.129979740000000e-01 1.421001980000000e-02 1.116744540000000e-01 1.320276710000000e-02 -1.695430630000000e-01 -1.429724750000000e-01 2.846774230000000e-01 -4.516931980000000e-01
            1.116682810000000e-01 1.321302330000000e-02 1.116578750000000e-01 1.149641030000000e-02 2.849693890000000e-01 -4.516933110000000e-01 -1.695359550000000e-01 -1.429592140000000e-01
            -1.695272950000000e-01 -1.429797730000000e-01 2.849592960000000e-01 -4.516928200000000e-01 1.119058370000000e-01 8.538755800000001e-03 1.125470950000000e-01 1.028515040000000e-02
            2.846812580000000e-01 -4.517029310000000e-01 -1.695415820000000e-01 -1.429457540000000e-01 1.125605250000000e-01 1.027823840000000e-02 1.138309120000000e-01 1.241665340000000e-02
280766472.0000000000 1.156327770000000e-01 -5.841172680000000e-04 1.140787110000000e-01 -1.370746060000000e-03 -1.981605920000000e-01 -1.001367120000000e-01 1.731987570000000e-01 -5.042695030000000e-01
            1.140704380000000e-01 -1.377064490000000e-03 1.142842820000000e-01 -3.299366050000000e-03 1.735064250000000e-01 -5.043382260000000e-01 -1.981749440000000e-01 -1.001026510000000e-01
            -1.981684090000000e-01 -1.001483590000000e-01 1.735021030000000e-01 -5.043270710000000e-01 1.141027640000000e-01 -6.145799140000000e-03 1.142838290000000e-01 -4.504988030000000e-03
            1.732028360000000e-01 -5.042869590000000e-01 -1.981497320000000e-01 -1.001153230000000e-01 1.142821960000000e-01 -4.494043520000000e-03 1.160235590000000e-01 -2.257670970000000e-03
281266055.0000000000 1.113609280000000e-01 -1.494743650000000e-02 1.096661990000000e-01 -1.537152230000000e-02 -2.164261520000000e-01 -5.251085880000000e-02 5.253525840000000e-02 -5.305353510000000e-01
            1.096596350000000e-01 -1.539279710000000e-02 1.100106500000000e-01 -1.766383310000000e-02 5.284183510000000e-02 -5.306611350000000e-01 -2.164326860000000e-01 -5.246974350000000e-02
            -2.164267240000000e-01 -5.249786330000000e-02 5.283057450000000e-02 -5.306639060000000e-01 1.094326030000000e-01 -2.028686390000000e-02 1.091692440000000e-01 -1.854857440000000e-02
            5.254680420000000e-02 -5.305369780000000e-01 -2.164312930000000e-01 -5.247122070000000e-02 1.091732150000000e-01 -1.854069630000000e-02 1.113340110000000e-01 -1.640533420000000e-02
281765638.0000000000 1.010495100000000e-01 -2.585660860000000e-02 9.937769330000000e-02 -2.584119720000000e-02 -2.240190140000000e-01 -2.138677100000000e-03 -7.154042460000000e-02 -5.286871150000000e-01
            9.938797550000000e-02 -2.583989350000000e-02 9.970891310000000e-02 -2.857140660000000e-02 -7.129174100000001e-02 -5.289019190000001e-01 -2.239995440000000e-01 -2.122363670000000e-03
            -2.240230670000000e-01 -2.150554790000000e-03 -7.128654619999999e-02 -5.288897270000000e-01 9.878944110000000e-02 -3.088686790000000e-02 9.816240040000000e-02 -2.889786330000000e-02
            -7.153800370000001e-02 -5.286986800000000e-01 -2.239962170000000e-01 -2.105456180000000e-03 9.817205740000000e-02 -2.889604690000000e-02 1.006671300000000e-01 -2.699146200000000e-02
282265221.0000000000 8.682856450000000e-02 -3.096031520000000e-02 8.540691420000000e-02 -3.044898980000000e-02 -2.207106070000000e-01 4.906822990000000e-02 -1.926920320000000e-01 -4.980502770000000e-01
            8.541854030000000e-02 -3.044733520000000e-02 8.550256140000000e-02 -3.368622380000000e-02 -1.924592800000000e-01 -4.983170670000000e-01 -2.206817580000000e-01 4.910361130000000e-02
            -2.207063020000000e-01 4.907814820000000e-02 -1.924602110000000e-01 -4.983018530000000e-01 8.430855349999999e-02 -3.555823350000000e-02 8.350146510000001e-02 -3.323654260000000e-02
            -1.926892970000000e-01 -4.980451700000000e-01 -2.206821260000000e-01 4.909543770000000e-02 8.350205910000000e-02 -3.324227900000000e-02 8.619717339999999e-02 -3.168031170000000e-02
282764804.0000000000 7.176613250000000e-02 -2.895761590000000e-02 7.078286460000000e-02 -2.804841900000000e-02 -2.062310840000000e-01 9.929605190000000e-02 -3.039501210000000e-01 -4.394331880000000e-01
            7.076834370000000e-02 -2.803749950000000e-02 7.041102660000000e-02 -3.167972530000000e-02 -3.038084900000000e-01 -4.397675870000000e-01 -2.061897750000000e-01 9.929440420000001e-02
            -2.062169300000000e-01 9.928359880000000e-02 -3.037900760000000e-01 -4.397538310000000e-01 6.910986140000000e-02 -3.306178650000000e-02 6.822335309999999e-02 -3.039454700000000e-02
            -3.039617830000000e-01 -4.394283150000000e-01 -2.061922950000000e-01 9.929691430000000e-02 6.823541950000001e-02 -3.040134450000000e-02 7.100549200000000e-02 -2.918267190000000e-02
283264387.0000000000 5.925332320000000e-02 -2.015520740000000e-02 5.888713780000000e-02 -1.898863510000000e-02 -1.802683450000000e-01 1.462077860000000e-01 -3.984458110000000e-01 -3.555988920000000e-01
            5.887421620000000e-02 -1.897394510000000e-02 5.791624660000000e-02 -2.287496640000000e-02 -3.983730430000000e-01 -3.559630870000000e-01 -1.802377440000000e-01 1.461998550000000e-01
            -1.802653430000000e-01 1.461954200000000e-01 -3.983642190000000e-01 -3.559368220000000e-01 5.662484390000000e-02 -2.374548000000000e-02 5.579526540000000e-02 -2.080264340000000e-02
            -3.984435700000000e-01 -3.555900750000000e-01 -1.802303080000000e-01 1.462072450000000e-01 5.578666260000000e-02 -2.079548230000000e-02 5.849393930000000e-02 -1.983864960000000e-02
283763970.0000000000 5.227711330000000e-02 -6.490687960000000e-03 5.259380590000000e-02 -5.291353100000000e-03 -1.430965290000000e-01 1.869453930000000e-01 -4.700080190000000e-01 -2.513897600000000e-01
            5.259451540000000e-02 -5.296218930000000e-03 5.094293050000000e-02 -9.210483960000000e-03 -4.700431600000000e-01 -2.517667410000000e-01 -1.430679500000000e-01 1.869575920000000e-01
            -1.431011820000000e-01 1.869551340000000e-01 -4.700460590000000e-01 -2.517771220000000e-01 4.980176450000000e-02 -9.592000880000000e-03 4.911230730000000e-02 -6.414711250000000e-03
            -4.700241790000000e-01 -2.513884220000000e-01 -1.430631440000000e-01 1.869641480000000e-01 4.908949120000000e-02 -6.429241940000000e-03 5.169153180000000e-02 -5.682955810000000e-03
284263553.0000000000 5.251894530000000e-02 8.833122620000000e-03 5.352084650000000e-02 9.812042510000001e-03 -9.597355400000000e-02 2.183376360000000e-01 -5.142007380000000e-01 -1.334463270000000e-01
            5.352360090000000e-02 9.812414940000000e-03 5.119945680000000e-02 6.117454760000000e-03 -5.143117130000000e-01 -1.338186020000000e-01 -9.594875220000000e-02 2.183509440000000e-01
            -9.597077140000000e-02 2.183464530000000e-01 -5.142842070000000e-01 -1.338116200000000e-01 5.037331180000000e-02 6.178641370000000e-03 4.979015130000000e-02 9.457101379999999e-03
            -5.142041630000000e-01 -1.334318190000000e-01 -9.593386900000000e-02 2.183448570000000e-01 4.978402880000000e-02 9.451549030000001e-03 5.222868650000000e-02 1.006413840000000e-02
284763136.0000000000 5.987540150000000e-02 2.217979430000000e-02 6.146841710000000e-02 2.272319700000000e-02 -4.145961610000000e-02 2.373967230000000e-01 -5.287226320000000e-01 -9.298626790000000e-03
            6.147297500000000e-02 2.271393800000000e-02 5.856020420000000e-02 1.944911500000000e-02 -5.289086400000000e-01 -9.648268360000000e-03 -4.140426310000000e-02 2.373720640000000e-01
            -4.143972720000000e-02 2.373855320000000e-01 -5.289055920000000e-01 -9.663254269999999e-03 5.815131940000000e-02 1.983973490000000e-02 5.768225490000000e-02 2.317373640000000e-02
            -5.287184690000000e-01 -9.304894790000000e-03 -4.140927390000000e-02 2.373713330000000e-01 5.767722730000000e-02 2.316946210000000e-02 6.002086760000000e-02 2.373725590000000e-02
285262719.0000000000 7.252231770000001e-02 3.047952430000000e-02 7.451225879999999e-02 3.039577370000000e-02 1.674740310000000e-02 2.421155910000000e-01 -5.136821010000000e-01 1.134377780000000e-01
            7.451919350000000e-02 3.040807510000000e-02 7.120053250000000e-02 2.775785510000000e-02 -5.139596780000000e-01 1.131555650000000e-01 1.678652940000000e-02 2.420841800000000e-01
            1.674391380000000e-02 2.421287580000000e-01 -5.139689610000000e-01 1.131409950000000e-01 7.129479070000000e-02 2.831047550000000e-02 7.083191060000001e-02 3.167807500000000e-02
            -5.136939060000000e-01 1.134503710000000e-01 1.679040140000000e-02 2.420870040000000e-01 7.083347500000001e-02 3.166670800000000e-02 7.315491540000001e-02 3.220811510000000e-02
285762302.0000000000 8.739428270000001e-02 3.194966540000000e-02 8.957715890000000e-02 3.118130480000000e-02 7.436064560000000e-02 2.320488070000000e-01 -4.711138170000000e-01 2.280331900000000e-01
            8.959021200000000e-02 3.118143850000000e-02 8.608747040000000e-02 2.921066560000000e-02 -4.714539620000000e-01 2.278248570000000e-01 7.438668690000000e-02 2.320143240000000e-01
            7.435436740000000e-02 2.320477080000000e-01 -4.714453330000000e-01 2.278182880000000e-01 8.668049500000000e-02 2.979591450000000e-02 8.617979130000000e-02 3.322477170000000e-02
            -4.711139590000000e-01 2.280449340000000e-01 7.438628270000000e-02 2.320243810000000e-01 8.618312409999999e-02 3.321340480000000e-02 8.853409090000000e-02 3.370248220000000e-02
286261885.0000000000 1.011387960000000e-01 2.646210450000000e-02 1.032969560000000e-01 2.501337590000000e-02 1.273824880000000e-01 2.081798410000000e-01 -4.042379420000000e-01 3.289216770000000e-01
            1.032944990000000e-01 2.502517900000000e-02 9.984268570000000e-02 2.373826340000000e-02 -4.046182190000000e-01 3.287664380000000e-01 1.274040420000000e-01 2.081585010000000e-01
            1.273815940000000e-01 2.081822780000000e-01 -4.046277370000000e-01 3.287669800000000e-01 1.009239930000000e-01 2.420167060000000e-02 1.003398140000000e-01 2.775749230000000e-02
            -4.042231160000000e-01 3.289369840000000e-01 1.273949070000000e-01 2.081368140000000e-01 1.003323920000000e-01 2.774782170000000e-02 1.027566310000000e-01 2.808558280000000e-02
286761468.0000000000 1.108238830000000e-01 1.542123730000000e-02 1.127191100000000e-01 1.338297160000000e-02 1.726362160000000e-01 1.726948850000000e-01 -3.169973460000000e-01 4.116029760000000e-01
            1.127313740000000e-01 1.338404870000000e-02 1.095333430000000e-01 1.269354550000000e-02 -3.174294340000000e-01 4.115709860000000e-01 1.726405200000000e-01 1.726456920000000e-01
            1.726387320000000e-01 1.726892570000000e-01 -3.174143880000000e-01 4.115606210000000e-01 1.109979560000000e-01 1.289609060000000e-02 1.103603730000000e-01 1.669494380000000e-02
            -3.169875450000000e-01 4.116253030000000e-01 1.726422010000000e-01 1.726393730000000e-01 1.103632940000000e-01 1.668566500000000e-02 1.128217520000000e-01 1.678406360000000e-02
287261051.0000000000 1.144619470000000e-01 1.249997510000000e-03 1.159849110000000e-01 -1.265074940000000e-03 2.080020390000000e-01 1.282154200000000e-01 -2.137816060000000e-01 4.725345460000000e-01
            1.159674080000000e-01 -1.249206020000000e-03 1.131772540000000e-01 -1.499589660000000e-03 -2.142165460000000e-01 4.725851220000000e-01 2.079965740000000e-01 1.281803970000000e-01
            2.080036330000000e-01 1.282117820000000e-01 -2.142102090000000e-01 4.725968940000000e-01 1.149305320000000e-01 -1.655548170000000e-03 1.143214110000000e-01 2.476441980000000e-03
            -2.137784240000000e-01 4.725456470000000e-01 2.079877170000000e-01 1.281722750000000e-01 1.143177140000000e-01 2.492599260000000e-03 1.167441710000000e-01 2.250082880000000e-03
287760634.0000000000 1.113104650000000e-01 -1.306947100000000e-02 1.123562160000000e-01 -1.585741750000000e-02 2.322878110000000e-01 7.746881350000000e-02 -9.937828479999999e-02 5.088239940000000e-01
            1.123734930000000e-01 -1.588158460000000e-02 1.100402420000000e-01 -1.581940540000000e-02 -9.980912810000001e-02 5.089840060000000e-01 2.322884520000000e-01 7.742013480000000e-02
            2.323110030000000e-01 7.747535920000000e-02 -9.981827560000001e-02 5.089867040000000e-01 1.119563570000000e-01 -1.638768200000000e-02 1.115048870000000e-01 -1.185443460000000e-02
            -9.938335180000001e-02 5.088379930000000e-01 2.322872950000000e-01 7.741765620000000e-02 1.115045610000000e-01 -1.184301890000000e-02 1.137787750000000e-01 -1.246858980000000e-02
288260217.0000000000 1.019871290000000e-01 -2.451377970000000e-02 1.025727350000000e-01 -2.742393600000000e-02 2.449616780000000e-01 2.283315790000000e-02 2.081620100000000e-02 5.182946770000000e-01
            1.025702590000000e-01 -2.743440370000000e-02 1.007172170000000e-01 -2.726871690000000e-02 2.042274400000000e-02 5.185604870000000e-01 2.449335420000000e-01 2.279308250000000e-02
            2.449597930000000e-01 2.283326300000000e-02 2.042267290000000e-02 5.185509880000000e-01 1.026659030000000e-01 -2.826648180000000e-02 1.025428630000000e-01 -2.333332200000000e-02
            2.080232810000000e-02 5.182977350000000e-01 2.449271600000000e-01 2.279340040000000e-02 1.025548650000000e-01 -2.332995540000000e-02 1.044700590000000e-01 -2.433395230000000e-02
288759800.0000000000 8.835906570000000e-02 -3.055841660000000e-02 8.854452779999999e-02 -3.344386400000000e-02 2.456403430000000e-01 -3.354168190000000e-02 1.407576550000000e-01 4.997211800000000e-01
            8.853000150000000e-02 -3.346371490000000e-02 8.708248730000000e-02 -3.329730970000000e-02 1.404270610000000e-01 5.000621590000000e-01 2.455845310000000e-01 -3.357386890000000e-02
            2.456141950000000e-01 -3.355182500000000e-02 1.404042560000000e-01 5.000606070000000e-01 8.894333530000000e-02 -3.472934440000000e-02 8.930741250000000e-02 -2.946956900000000e-02
            1.407668250000000e-01 4.997191030000000e-01 2.455880020000000e-01 -3.358953860000000e-02 8.932509819999999e-02 -2.947143180000000e-02 9.074961280000000e-02 -3.079913310000000e-02
289259383.0000000000 7.330247710000000e-02 -2.967795480000000e-02 7.314206270000000e-02 -3.250676700000000e-02 2.339324070000000e-01 -8.955843660000000e-02 2.537356490000000e-01 4.532263630000000e-01
            7.314321479999999e-02 -3.250344030000000e-02 7.203169430000000e-02 -3.244540100000000e-02 2.535091800000000e-01 4.536608750000000e-01 2.338980530000000e-01 -8.957650330000000e-02
            2.339341560000000e-01 -8.955438530000000e-02 2.535162220000000e-01 4.536547710000000e-01 7.365003990000001e-02 -3.425114510000000e-02 7.467553339999999e-02 -2.884095750000000e-02
            2.537596210000000e-01 4.532243890000000e-01 2.338901800000000e-01 -8.958153150000001e-02 7.466843920000001e-02 -2.883011060000000e-02 7.545597200000000e-02 -3.031679730000000e-02
289758966.0000000000 6.018287690000000e-02 -2.188698070000000e-02 5.976061350000000e-02 -2.459869830000000e-02 2.096109040000000e-01 -1.427268820000000e-01 3.529072030000000e-01 3.808234960000000e-01
            5.977897190000000e-02 -2.460990420000000e-02 5.890967180000000e-02 -2.463755700000000e-02 3.527658330000000e-01 3.813087900000000e-01 2.095582810000000e-01 -1.427477310000000e-01
            2.096052410000000e-01 -1.427295630000000e-01 3.527456410000000e-01 3.813125910000000e-01 6.019502470000000e-02 -2.674435860000000e-02 6.195208620000000e-02 -2.139410320000000e-02
            3.528902200000000e-01 3.808217630000000e-01 2.095482620000000e-01 -1.427556030000000e-01 6.195465260000000e-02 -2.138321580000000e-02 6.200209750000000e-02 -2.282440090000000e-02
290258549.0000000000 5.210645580000000e-02 -8.786727300000000e-03 5.149816120000000e-02 -1.139856230000000e-02 1.727708440000000e-01 -1.900575650000000e-01 4.318152570000000e-01 2.865702490000000e-01
            5.150626980000000e-02 -1.139510490000000e-02 5.083256370000000e-02 -1.154024010000000e-02 4.317741440000000e-01 2.870854490000000e-01 1.727165490000000e-01 -1.900798370000000e-01
            1.727872650000000e-01 -1.900697230000000e-01 4.317703560000000e-01 2.870888210000000e-01 5.168519080000000e-02 -1.382290350000000e-02 5.416955410000000e-02 -8.758793530000000e-03
            4.318014550000000e-01 2.865717360000000e-01 1.727140170000000e-01 -1.900681330000000e-01 5.416847280000000e-02 -8.766600689999999e-03 5.348057870000000e-02 -9.904269180000000e-03
290758132.0000000000 5.104165670000000e-02 6.633255650000000e-03 5.027497550000000e-02 4.105992500000000e-03 1.245325420000000e-01 -2.281389120000000e-01 4.854673320000000e-01 1.763938730000000e-01
            5.027208260000000e-02 4.088590610000000e-03 4.977730230000000e-02 3.879987820000000e-03 4.855439940000000e-01 1.769181470000000e-01 1.244681850000000e-01 -2.281365840000000e-01
            1.245304710000000e-01 -2.281427490000000e-01 4.855429700000000e-01 1.769221630000000e-01 5.014755230000000e-02 1.577898580000000e-03 5.325930710000000e-02 6.083523470000000e-03
            4.854613490000000e-01 1.764101110000000e-01 1.244714550000000e-01 -2.281291160000000e-01 5.327117290000000e-02 6.084268830000000e-03 5.193337520000000e-02 5.497290430000000e-03
291257715.0000000000 5.730079710000000e-02 2.077394560000000e-02 5.632425510000000e-02 1.828815180000000e-02 6.733585780000000e-02 -2.536673700000000e-01 5.109030120000000e-01 5.747523880000000e-02
            5.633363940000000e-02 1.826319880000000e-02 5.603409770000000e-02 1.802054410000000e-02 5.111343100000000e-01 5.793755830000000e-02 6.726284430000000e-02 -2.536300080000000e-01
            6.733634430000000e-02 -2.536554820000000e-01 5.111372110000000e-01 5.795444540000000e-02 5.592670960000000e-02 1.585152490000000e-02 5.947933690000000e-02 1.961037780000000e-02
            5.109203329999999e-01 5.745060770000000e-02 6.727717110000000e-02 -2.536339840000000e-01 5.946802320000000e-02 1.961049830000000e-02 5.769069570000000e-02 1.976695730000000e-02
291757298.0000000000 6.933907390000001e-02 3.035234200000000e-02 6.812617059999999e-02 2.792382080000000e-02 4.866520310000000e-03 -2.641988470000000e-01 5.075195030000000e-01 -6.283365770000000e-02
            6.812453670000000e-02 2.789121520000000e-02 6.808387570000000e-02 2.759785790000000e-02 5.078581840000000e-01 -6.242233270000000e-02 4.806869550000000e-03 -2.641556650000000e-01
            4.875543360000000e-03 -2.641968870000000e-01 5.078496700000000e-01 -6.240738140000000e-02 6.751746230000000e-02 2.569174150000000e-02 7.126666769999999e-02 2.863308330000000e-02
            5.075252640000000e-01 -6.284000750000000e-02 4.822446350000000e-03 -2.641622130000000e-01 7.127252950000000e-02 2.863153340000000e-02 6.929010900000000e-02 2.963849350000000e-02
292256881.0000000000 8.431867699999999e-02 3.327358410000000e-02 8.280837200000001e-02 3.094012700000000e-02 -5.842062550000000e-02 -2.587590940000000e-01 4.766283410000000e-01 -1.777173860000000e-01
            8.282377600000000e-02 3.095128390000000e-02 8.305701700000000e-02 3.053507910000000e-02 4.770258480000000e-01 -1.773624210000000e-01 -5.847597380000000e-02 -2.587213340000000e-01
            -5.842094950000000e-02 -2.587827180000000e-01 4.770444890000000e-01 -1.773899390000000e-01 8.214979840000000e-02 2.907932500000000e-02 8.583257029999999e-02 3.113322420000000e-02
            4.766190710000000e-01 -1.777335480000000e-01 -5.846496410000000e-02 -2.587344930000000e-01 8.583626640000000e-02 3.113347900000000e-02 8.392861710000001e-02 3.300084450000000e-02
292756464.0000000000 9.886205640000000e-02 2.912190910000000e-02 9.700377690000000e-02 2.698520370000000e-02 -1.181690670000000e-01 -2.380121600000000e-01 4.209064440000000e-01 -2.814075200000000e-01
            9.700024000000000e-02 2.697801800000000e-02 9.761357510000000e-02 2.634648560000000e-02 4.213969540000000e-01 -2.811537800000000e-01 -1.182025410000000e-01 -2.379486080000000e-01
            -1.181815400000000e-01 -2.380025770000000e-01 4.214002720000000e-01 -2.811619190000000e-01 9.650283329999999e-02 2.543121950000000e-02 9.983821770000000e-02 2.668959070000000e-02
            4.208971830000000e-01 -2.814083700000000e-01 -1.182158290000000e-01 -2.379546890000000e-01 9.984647500000000e-02 2.669972330000000e-02 9.825830050000001e-02 2.937617690000000e-02
293256047.0000000000 1.098590450000000e-01 1.890173830000000e-02 1.076637690000000e-01 1.711209530000000e-02 -1.707024240000000e-01 -2.038268590000000e-01 3.438723040000000e-01 -3.692091850000000e-01
            1.076866900000000e-01 1.709526420000000e-02 1.086270310000000e-01 1.612318490000000e-02 3.444310750000000e-01 -3.690855640000000e-01 -1.707057610000000e-01 -2.037603560000000e-01
            -1.707026770000000e-01 -2.038251950000000e-01 3.444080150000000e-01 -3.690963640000000e-01 1.074856820000000e-01 1.578727820000000e-02 1.102771340000000e-01 1.642403660000000e-02
            3.438709440000000e-01 -3.691968690000000e-01 -1.707186210000000e-01 -2.037591050000000e-01 1.102613420000000e-01 1.642668260000000e-02 1.092022310000000e-01 1.973796070000000e-02
293755630.0000000000 1.150796940000000e-01 4.914396850000000e-03 1.126629290000000e-01 3.601022500000000e-03 -2.133192240000000e-01 -1.588434600000000e-01 2.495184350000000e-01 -4.373197540000000e-01
            1.126410380000000e-01 3.592812840000000e-03 1.138684330000000e-01 2.153230740000000e-03 2.500844850000000e-01 -4.373227320000000e-01 -2.133391190000000e-01 -1.587759830000000e-01
            -2.133189210000000e-01 -1.588622720000000e-01 2.501018390000000e-01 -4.373289160000000e-01 1.128560270000000e-01 2.386623120000000e-03 1.149728780000000e-01 2.618629420000000e-03
            2.495256110000000e-01 -4.373292000000000e-01 -2.133394060000000e-01 -1.587895760000000e-01 1.149672540000000e-01 2.615396790000000e-03 1.145887890000000e-01 6.322083460000000e-03
294255213.0000000000 1.135262260000000e-01 -9.936733959999999e-03 1.109746330000000e-01 -1.066866250000000e-02 -2.444563620000000e-01 -1.059191910000000e-01 1.422369740000000e-01 -4.826029240000000e-01
            1.109816180000000e-01 -1.065258640000000e-02 1.123137280000000e-01 -1.271307550000000e-02 1.428116380000000e-01 -4.827337120000000e-01 -2.444303290000000e-01 -1.058458330000000e-01
            -2.444526500000000e-01 -1.059306110000000e-01 1.428052960000000e-01 -4.827326240000000e-01 1.116407440000000e-01 -1.195513190000000e-02 1.130097440000000e-01 -1.185976870000000e-02
            1.422322630000000e-01 -4.825990750000000e-01 -2.444366590000000e-01 -1.058462530000000e-01 1.130064690000000e-01 -1.187493380000000e-02 1.133515970000000e-01 -8.005567250000000e-03
294754796.0000000000 1.054740910000000e-01 -2.255520960000000e-02 1.029863930000000e-01 -2.262512280000000e-02 -2.631249640000000e-01 -4.767527070000000e-02 2.703118550000000e-02 -5.025143330000000e-01
            1.029975340000000e-01 -2.263203120000000e-02 1.042591800000000e-01 -2.532228280000000e-02 2.756162680000000e-02 -5.027940770000000e-01 -2.630962390000000e-01 -4.761387770000000e-02
            -2.631231930000000e-01 -4.769355490000000e-02 2.755476360000000e-02 -5.027906730000000e-01 1.040398470000000e-01 -2.417670470000000e-02 1.047477290000000e-01 -2.401186670000000e-02
            2.702457630000000e-02 -5.025036870000000e-01 -2.630981060000000e-01 -4.760978490000000e-02 1.047434050000000e-01 -2.400569730000000e-02 1.057565400000000e-01 -2.022455110000000e-02
295254379.0000000000 9.254390960000000e-02 -3.028146350000000e-02 9.034749180000000e-02 -2.968934940000000e-02 -2.687999850000000e-01 1.342640540000000e-02 -9.040991969999999e-02 -4.953878580000000e-01
            9.033844080000000e-02 -2.968978440000000e-02 9.133207820000000e-02 -3.306954590000000e-02 -8.995432900000000e-02 -4.957855770000000e-01 -2.687527940000000e-01 1.348927210000000e-02
            -2.687984360000000e-01 1.342600240000000e-02 -8.994697470000000e-02 -4.957810220000000e-01 9.165856830000001e-02 -3.164652860000000e-02 9.183252470000000e-02 -3.121562730000000e-02
            -9.041610479999999e-02 -4.953841380000000e-01 -2.687501060000000e-01 1.349098080000000e-02 9.182729880000000e-02 -3.122107900000000e-02 9.336612360000000e-02 -2.768104370000000e-02
295753962.0000000000 7.740750000000000e-02 -3.133189810000000e-02 7.571263650000000e-02 -3.021017790000000e-02 -2.609899500000000e-01 7.502707359999999e-02 -2.036834950000000e-01 -4.607570560000000e-01
            7.571392389999999e-02 -3.021627340000000e-02 7.620634420000000e-02 -3.411638910000000e-02 -2.033048600000000e-01 -4.612519810000000e-01 -2.609217810000000e-01 7.507534380000000e-02
            -2.609802600000000e-01 7.503239560000000e-02 -2.033051520000000e-01 -4.612576080000000e-01 7.710570220000000e-02 -3.261247540000000e-02 7.690490400000000e-02 -3.182938790000000e-02
            -2.036713210000000e-01 -4.607608440000000e-01 -2.609154540000000e-01 7.508636980000000e-02 7.690078559999999e-02 -3.183193140000000e-02 7.882295650000000e-02 -2.865583010000000e-02
296253545.0000000000 6.337539060000000e-02 -2.531659100000000e-02 6.234140450000000e-02 -2.379914400000000e-02 -2.392954870000000e-01 1.344793490000000e-01 -3.059706890000000e-01 -3.999083460000000e-01
            6.232553060000000e-02 -2.381264120000000e-02 6.214960290000000e-02 -2.809869420000000e-02 -3.057313880000000e-01 -4.004769260000000e-01 -2.392387980000000e-01 1.345088490000000e-01
            -2.393017600000000e-01 1.344831290000000e-01 -3.057253870000000e-01 -4.004780520000000e-01 6.365511679999999e-02 -2.668714110000000e-02 6.323357089999999e-02 -2.550722470000000e-02
            -3.059608550000000e-01 -3.999090630000000e-01 -2.392280050000000e-01 1.345061530000000e-01 6.324062690000000e-02 -2.550970080000000e-02 6.535806130000001e-02 -2.270687900000000e-02
296753128.0000000000 5.364306710000000e-02 -1.343815470000000e-02 5.336235370000000e-02 -1.180736500000000e-02 -2.037916610000000e-01 1.885659150000000e-01 -3.907495330000000e-01 -3.161002620000000e-01
            5.335029210000000e-02 -1.179831750000000e-02 5.242055540000000e-02 -1.622813560000000e-02 -3.906540760000000e-01 -3.167294320000000e-01 -2.037102730000000e-01 1.886087290000000e-01
            -2.037829990000000e-01 1.885689890000000e-01 -3.906668000000000e-01 -3.167283780000000e-01 5.441599100000000e-02 -1.507524640000000e-02 5.397833770000000e-02 -1.356340730000000e-02
            -3.907463490000000e-01 -3.160821470000000e-01 -2.037006190000000e-01 1.886076330000000e-01 5.397425880000000e-02 -1.355911200000000e-02 5.613988390000000e-02 -1.110288200000000e-02
297252711.0000000000 5.053924070000000e-02 1.578005740000000e-03 5.101029060000000e-02 3.081963110000000e-03 -1.554041460000000e-01 2.337262660000000e-01 -4.526265270000000e-01 -2.145737130000000e-01
            5.099530510000000e-02 3.103177580000000e-03 4.931908210000000e-02 -1.194286960000000e-03 -4.526496500000000e-01 -2.152163980000000e-01 -1.553268650000000e-01 2.337259160000000e-01
            -1.554109380000000e-01 2.337306260000000e-01 -4.526722480000000e-01 -2.152092810000000e-01 5.169989020000000e-02 -4.219303050000000e-04 5.130735700000000e-02 1.350166310000000e-03
            -4.526130740000000e-01 -2.145667740000000e-01 -1.553180450000000e-01 2.337331410000000e-01 5.130786440000000e-02 1.346055190000000e-03 5.340533630000000e-02 3.539785610000000e-03
297752294.0000000000 5.473113650000000e-02 1.624664650000000e-02 5.584961310000000e-02 1.739979540000000e-02 -9.644202759999999e-02 2.662879330000000e-01 -4.880139980000000e-01 -1.019584240000000e-01
            5.584796970000000e-02 1.738449200000000e-02 5.352092900000000e-02 1.346578190000000e-02 -4.882098640000000e-01 -1.025766070000000e-01 -9.634206150000001e-02 2.662771180000000e-01
            -9.643322850000000e-02 2.662676250000000e-01 -4.882129070000000e-01 -1.025963910000000e-01 5.616891540000000e-02 1.380659790000000e-02 5.586818910000000e-02 1.572698930000000e-02
            -4.880077380000000e-01 -1.019585890000000e-01 -9.633377260000001e-02 2.662872610000000e-01 5.585254780000000e-02 1.572530760000000e-02 5.786051430000000e-02 1.776576050000000e-02
298251877.0000000000 6.518880010000000e-02 2.715937750000000e-02 6.677284570000000e-02 2.777470460000000e-02 -3.046047500000000e-02 2.833938790000000e-01 -4.955962280000000e-01 1.458079180000000e-02
            6.676546060000001e-02 2.776512470000000e-02 6.398552270000001e-02 2.438801130000000e-02 -4.959400450000000e-01 1.402716800000000e-02 -3.037529960000000e-02 2.833536200000000e-01
            -3.048150510000000e-02 2.833998690000000e-01 -4.959461450000000e-01 1.401963830000000e-02 6.670647100000000e-02 2.426543810000000e-02 6.648000340000000e-02 2.624232030000000e-02
            -4.955884860000000e-01 1.460419260000000e-02 -3.038369890000000e-02 2.833648590000000e-01 6.648215840000000e-02 2.622760900000000e-02 6.838289750000000e-02 2.822291350000000e-02
298751460.0000000000 7.931439160000001e-02 3.193909180000000e-02 8.111338240000000e-02 3.190359680000000e-02 3.792066830000000e-02 2.836003720000000e-01 -4.760313950000000e-01 1.283375830000000e-01
            8.109935840000000e-02 3.191208480000000e-02 7.811464970000000e-02 2.915776610000000e-02 -4.765036650000000e-01 1.278611330000000e-01 3.799306000000000e-02 2.835251580000000e-01
            3.790542400000000e-02 2.836070180000000e-01 -4.764988400000000e-01 1.278612860000000e-01 8.077135650000000e-02 2.862257240000000e-02 8.058747550000001e-02 3.061017310000000e-02
            -4.760335250000000e-01 1.283407950000000e-01 3.798380340000000e-02 2.835500140000000e-01 8.058874380000000e-02 3.059130440000000e-02 8.245644160000000e-02 3.258199430000000e-02
299251043.0000000000 9.384742230000000e-02 2.971695190000000e-02 9.563650130000000e-02 2.908536340000000e-02 1.040279720000000e-01 2.670489550000000e-01 -4.314757790000000e-01 2.334249680000000e-01
            9.562637250000000e-02 2.907773530000000e-02 9.267191690000000e-02 2.692860160000000e-02 -4.320509100000000e-01 2.330708000000000e-01 1.040910470000000e-01 2.669579110000000e-01
            1.040433770000000e-01 2.670464540000000e-01 -4.320587540000000e-01 2.330588580000000e-01 9.516183640000000e-02 2.607696260000000e-02 9.493107440000000e-02 2.802417650000000e-02
            -4.314647010000000e-01 2.334202950000000e-01 1.041072990000000e-01 2.669862220000000e-01 9.494574930000001e-02 2.802472990000000e-02 9.682459950000000e-02 3.003788100000000e-02
299750626.0000000000 1.056255620000000e-01 2.120934310000000e-02 1.071785450000000e-01 2.008413300000000e-02 1.637456540000000e-01 2.353431760000000e-01 -3.649464800000000e-01 3.249830020000000e-01
            1.071750860000000e-01 2.008390580000000e-02 1.044691170000000e-01 1.842826530000000e-02 -3.655811110000000e-01 3.247694730000000e-01 1.637698410000000e-01 2.352667720000000e-01
            1.637411190000000e-01 2.353571780000000e-01 -3.655930290000000e-01 3.247628270000000e-01 1.067249050000000e-01 1.735798300000000e-02 1.064006790000000e-01 1.929950550000000e-02
            -3.649475040000000e-01 3.249774120000000e-01 1.637919220000000e-01 2.352596330000000e-01 1.064080040000000e-01 1.930606410000000e-02 1.083620840000000e-01 2.131168390000000e-02
300250209.0000000000 1.122307470000000e-01 8.396525909999999e-03 1.133865110000000e-01 6.939138960000000e-03 2.139027790000000e-01 1.910232920000000e-01 -2.800144770000000e-01 3.990285320000000e-01
            1.133697130000000e-01 6.934262520000000e-03 1.110706470000000e-01 5.614500420000000e-03 -2.806896360000000e-01 3.989620890000000e-01 2.139088920000000e-01 1.909209110000000e-01
            2.138938120000000e-01 1.910233000000000e-01 -2.806925360000000e-01 3.989625380000000e-01 1.130807910000000e-01 4.411891590000000e-03 1.126142960000000e-01 6.442071120000000e-03
            -2.800083550000000e-01 3.990377480000000e-01 2.139092160000000e-01 1.909290490000000e-01 1.126277150000000e-01 6.449189050000000e-03 1.147114220000000e-01 8.394560670000000e-03
300749791.0000000000 1.123379090000000e-01 -5.961172460000000e-03 1.130536150000000e-01 -7.530281270000000e-03 2.523243190000000e-01 1.369730280000000e-01 -1.806656650000000e-01 4.521793750000000e-01
            1.130564970000000e-01 -7.535533250000000e-03 1.111771610000000e-01 -8.755276859999999e-03 -1.813592810000000e-01 4.522888050000000e-01 2.523330410000000e-01 1.368928660000000e-01
            2.523280870000000e-01 1.369683960000000e-01 -1.813579620000000e-01 4.522829860000000e-01 1.129435920000000e-01 -9.956694310000000e-03 1.123811270000000e-01 -7.789147890000000e-03
            -1.806669180000000e-01 4.522096500000000e-01 2.523456720000000e-01 1.368745570000000e-01 1.123887550000000e-01 -7.795856820000000e-03 1.145813250000000e-01 -5.962862300000000e-03
301249374.0000000000 1.059295110000000e-01 -1.884571400000000e-02 1.062485430000000e-01 -2.030146740000000e-02 2.777581910000000e-01 7.603952310000001e-02 -7.149802420000000e-02 4.816446610000000e-01
            1.062424540000000e-01 -2.030467420000000e-02 1.047793000000000e-01 -2.163341830000000e-02 -7.215728610000000e-02 4.819046370000000e-01 2.777396470000000e-01 7.594928550000001e-02
            2.777682730000000e-01 7.604014670000001e-02 -7.216227570000000e-02 4.819005320000000e-01 1.063774380000000e-01 -2.277049550000000e-02 1.057536770000000e-01 -2.040823890000000e-02
            -7.149799610000000e-02 4.816532130000000e-01 2.777445770000000e-01 7.593678080000001e-02 1.057469460000000e-01 -2.038966770000000e-02 1.080202120000000e-01 -1.878100900000000e-02
301748957.0000000000 9.431256770000000e-02 -2.750213760000000e-02 9.436370790000000e-02 -2.867914430000000e-02 2.893377680000000e-01 1.089055210000000e-02 4.218940650000000e-02 4.853171560000000e-01
            9.436730459999999e-02 -2.868105580000000e-02 9.315135270000000e-02 -3.030844980000000e-02 4.160609270000000e-02 4.857167080000000e-01 2.892922050000000e-01 1.080349810000000e-02
            2.893198020000000e-01 1.088124860000000e-02 4.160710650000000e-02 4.857326700000000e-01 9.465512790000000e-02 -3.129926600000000e-02 9.404658430000000e-02 -2.871035390000000e-02
            4.219579710000000e-02 4.853135200000000e-01 2.892779740000000e-01 1.079831120000000e-02 9.405902820000001e-02 -2.870675800000000e-02 9.628296080000000e-02 -2.729112570000000e-02
302248540.0000000000 7.988204860000001e-02 -2.992627060000000e-02 7.985429020000000e-02 -3.076421540000000e-02 2.863850360000000e-01 -5.584250400000000e-02 1.543501730000000e-01 4.621979300000000e-01
            7.985441050000000e-02 -3.076870490000000e-02 7.873772360000000e-02 -3.273534360000000e-02 1.538614180000000e-01 4.627410690000000e-01 2.863359730000000e-01 -5.593781580000000e-02
            2.864062960000000e-01 -5.586148690000000e-02 1.538599840000000e-01 4.627508670000000e-01 8.021963760000000e-02 -3.358910640000000e-02 7.973222510000000e-02 -3.077786810000000e-02
            1.543519530000000e-01 4.621974350000000e-01 2.863186610000000e-01 -5.594723070000000e-02 7.972373330000000e-02 -3.078814130000000e-02 8.185892800000000e-02 -2.958238410000000e-02
302748123.0000000000 6.579670629999999e-02 -2.542150270000000e-02 6.588807550000000e-02 -2.590488260000000e-02 2.684443900000000e-01 -1.213430880000000e-01 2.583380090000000e-01 4.128580510000000e-01
            6.588286290000001e-02 -2.588784880000000e-02 6.467159910000000e-02 -2.822233560000000e-02 2.579805150000000e-01 4.135164200000000e-01 2.683502430000000e-01 -1.214060690000000e-01
            2.684430250000000e-01 -1.213318940000000e-01 2.579799700000000e-01 4.135084820000000e-01 6.621288320000000e-02 -2.897122470000000e-02 6.593090740000000e-02 -2.600934160000000e-02
            2.583253770000000e-01 4.128628550000000e-01 2.683552910000000e-01 -1.213988950000000e-01 6.594036650000000e-02 -2.600311040000000e-02 6.783012650000000e-02 -2.497033360000000e-02
303247706.0000000000 5.532834710000000e-02 -1.481200080000000e-02 5.568818460000000e-02 -1.504590920000000e-02 2.353508670000000e-01 -1.822140220000000e-01 3.475799080000000e-01 3.398491970000000e-01
            5.567693790000000e-02 -1.506058550000000e-02 5.416786680000000e-02 -1.760404920000000e-02 3.473961230000000e-01 3.405656990000000e-01 2.352517730000000e-01 -1.822654540000000e-01
            2.353645580000000e-01 -1.822077740000000e-01 3.473900450000000e-01 3.405689040000000e-01 5.587033890000000e-02 -1.833227890000000e-02 5.580686660000000e-02 -1.531012030000000e-02
            3.475776220000000e-01 3.398374650000000e-01 2.352603060000000e-01 -1.822548850000000e-01 5.580786760000000e-02 -1.530021390000000e-02 5.748959890000000e-02 -1.432628470000000e-02
303747289.0000000000 5.093686180000000e-02 -4.871941720000000e-04 5.168422190000000e-02 -6.158601040000000e-04 1.879021650000000e-01 -2.346366930000000e-01 4.163619310000000e-01 2.476323340000000e-01
            5.168486770000000e-02 -6.237279640000000e-04 4.979745900000000e-02 -3.289669570000000e-03 4.163648920000000e-01 2.483965940000000e-01 1.877983140000000e-01 -2.346537180000000e-01
            1.879137020000000e-01 -2.346497080000000e-01 4.163622460000000e-01 2.484008610000000e-01 5.163240410000000e-02 -4.030227000000000e-03 5.181985640000000e-02 -1.052586890000000e-03
            4.163790950000000e-01 2.476359800000000e-01 1.877974200000000e-01 -2.346477230000000e-01 5.181542520000000e-02 -1.048992220000000e-03 5.324416960000000e-02 -2.868284030000000e-05
304246872.0000000000 5.372196000000000e-02 1.421878160000000e-02 5.487791500000000e-02 1.401499180000000e-02 1.281561690000000e-01 -2.747070100000000e-01 4.606291810000000e-01 1.423181290000000e-01
            5.488775420000000e-02 1.400739270000000e-02 5.258991680000000e-02 1.142067770000000e-02 4.607905360000000e-01 1.430673470000000e-01 1.280466650000000e-01 -2.746929350000000e-01
            1.281588870000000e-01 -2.747031960000000e-01 4.608022830000000e-01 1.430750030000000e-01 5.455263910000000e-02 1.058800140000000e-02 5.495114510000000e-02 1.342159690000000e-02
            4.606424500000000e-01 1.423221740000000e-01 1.280539340000000e-01 -2.747011870000000e-01 5.494252330000000e-02 1.342013370000000e-02 5.615559640000000e-02 1.457531610000000e-02
304746455.0000000000 6.298038850000000e-02 2.589868430000000e-02 6.448243340000000e-02 2.543723900000000e-02 5.963011530000000e-02 -2.990908660000000e-01 4.783898580000000e-01 3.067957770000000e-02
            6.448095590000000e-02 2.541903120000000e-02 6.183108400000000e-02 2.308388950000000e-02 4.787339030000000e-01 3.137752290000000e-02 5.953618260000000e-02 -2.990619590000000e-01
            5.964574730000000e-02 -2.990777090000000e-01 4.787293730000000e-01 3.136930170000000e-02 6.388688160000000e-02 2.210926220000000e-02 6.438597800000000e-02 2.471498940000000e-02
            4.783907870000000e-01 3.068531780000000e-02 5.953231200000000e-02 -2.990620780000000e-01 6.440309850000001e-02 2.470876210000000e-02 6.548627360000001e-02 2.609160890000000e-02
305246038.0000000000 7.644054420000000e-02 3.190366560000000e-02 7.815512230000000e-02 3.105810170000000e-02 -1.308774870000000e-02 -3.058112670000000e-01 4.696696000000000e-01 -8.064501750000000e-02
            7.816840180000000e-02 3.106287140000000e-02 7.532198060000000e-02 2.909482460000000e-02 4.701637700000000e-01 -8.004827600000000e-02 -1.320424120000000e-02 -3.057529020000000e-01
            -1.308349960000000e-02 -3.058159750000000e-01 4.701644360000000e-01 -8.004593670000000e-02 7.738555200000000e-02 2.795396400000000e-02 7.787446310000000e-02 3.030945080000000e-02
            4.696731760000000e-01 -8.064653220000000e-02 -1.319294690000000e-02 -3.057463650000000e-01 7.786453890000000e-02 3.031491040000000e-02 7.897464630000001e-02 3.193896940000000e-02
305745621.0000000000 9.098633100000000e-02 3.108285640000000e-02 9.273638750000000e-02 2.979658510000000e-02 -8.507439450000000e-02 -2.945369470000000e-01 4.360633830000000e-01 -1.857561500000000e-01
            9.275361330000000e-02 2.979760660000000e-02 8.987636770000000e-02 2.829219380000000e-02 4.366814000000000e-01 -1.852973000000000e-01 -8.515221490000000e-02 -2.944536680000000e-01
            -8.507373479999999e-02 -2.945233480000000e-01 4.367011610000000e-01 -1.852892650000000e-01 9.190029470000000e-02 2.693295960000000e-02 9.226360720000000e-02 2.910328520000000e-02
            4.360647070000000e-01 -1.857589510000000e-01 -8.515162120000000e-02 -2.944485310000000e-01 9.225856030000000e-02 2.910355730000000e-02 9.346637620000001e-02 3.093218790000000e-02
306245204.0000000000 1.034112930000000e-01 2.383432110000000e-02 1.050551560000000e-01 2.212762990000000e-02 -1.517479480000000e-01 -2.664958440000000e-01 3.801228840000000e-01 -2.797370840000000e-01
            1.050420150000000e-01 2.212953300000000e-02 1.023005070000000e-01 2.102172380000000e-02 3.808482680000000e-01 -2.794156700000000e-01 -1.517969870000000e-01 -2.663822440000000e-01
            -1.517598940000000e-01 -2.664880480000000e-01 3.808483630000000e-01 -2.794097840000000e-01 1.042386540000000e-01 1.951517000000000e-02 1.043980850000000e-01 2.155937860000000e-02
            3.801099420000000e-01 -2.797327200000000e-01 -1.518130350000000e-01 -2.663994780000000e-01 1.043961460000000e-01 2.155361310000000e-02 1.058036090000000e-01 2.350144720000000e-02
306744787.0000000000 1.111491060000000e-01 1.183560200000000e-02 1.124982920000000e-01 9.851968379999999e-03 -2.094580170000000e-01 -2.240156910000000e-01 3.049953580000000e-01 -3.584105130000000e-01
            1.125060570000000e-01 9.849751710000000e-03 1.100607020000000e-01 9.052166620000000e-03 3.057779380000000e-01 -3.582601390000000e-01 -2.095051510000000e-01 -2.238894120000000e-01
            -2.094638240000000e-01 -2.239965550000000e-01 3.057806830000000e-01 -3.582614700000000e-01 1.118444510000000e-01 7.398692400000000e-03 1.117410880000000e-01 9.437784790000001e-03
            3.049995300000000e-01 -3.584020910000000e-01 -2.094975270000000e-01 -2.238915350000000e-01 1.117395540000000e-01 9.444277390000000e-03 1.133844940000000e-01 1.139664020000000e-02
307244370.0000000000 1.126645170000000e-01 -2.268734850000000e-03 1.136559490000000e-01 -4.412819760000000e-03 -2.555676480000000e-01 -1.699492330000000e-01 2.142486730000000e-01 -4.182539770000000e-01
            1.136460750000000e-01 -4.411185800000000e-03 1.115713970000000e-01 -5.074643550000000e-03 2.150585070000000e-01 -4.182993620000000e-01 -2.555651070000000e-01 -1.698275850000000e-01
            -2.555572410000000e-01 -1.699548570000000e-01 2.150590830000000e-01 -4.182941720000000e-01 1.131872180000000e-01 -6.787864900000000e-03 1.128656750000000e-01 -4.623734370000000e-03
            2.142576640000000e-01 -4.182568130000000e-01 -2.555623490000000e-01 -1.698163130000000e-01 1.128533080000000e-01 -4.605599880000000e-03 1.147045570000000e-01 -2.761202670000000e-03
307743953.0000000000 1.076444840000000e-01 -1.553946160000000e-02 1.082704690000000e-01 -1.764755980000000e-02 -2.883352000000000e-01 -1.073101890000000e-01 1.120347790000000e-01 -4.562557580000000e-01
            1.082686800000000e-01 -1.766085990000000e-02 1.065596580000000e-01 -1.835490530000000e-02 1.128297580000000e-01 -4.564803080000000e-01 -2.882984240000000e-01 -1.071932570000000e-01
            -2.883232850000000e-01 -1.073099340000000e-01 1.128383260000000e-01 -4.564816930000000e-01 1.079696000000000e-01 -2.007765310000000e-02 1.075253160000000e-01 -1.768320230000000e-02
            1.120527750000000e-01 -4.562364380000000e-01 -2.883080880000000e-01 -1.071921940000000e-01 1.075256190000000e-01 -1.768624140000000e-02 1.095148900000000e-01 -1.603985590000000e-02
308243536.0000000000 9.713087870000001e-02 -2.514883670000000e-02 9.746169930000000e-02 -2.707492730000000e-02 -3.065834290000000e-01 -3.895669260000000e-02 3.222427930000000e-03 -4.699149440000000e-01
            9.747530370000000e-02 -2.709329350000000e-02 9.604175810000000e-02 -2.796904660000000e-02 3.951967260000000e-03 -4.703101590000000e-01 -3.065330530000000e-01 -3.884165410000000e-02
            -3.065739310000000e-01 -3.896503640000000e-02 3.948808710000000e-03 -4.703322060000000e-01 9.727273690000000e-02 -2.963085930000000e-02 9.679962950000000e-02 -2.696013930000000e-02
            3.242221660000000e-03 -4.699137920000000e-01 -3.065308240000000e-01 -3.882072140000000e-02 9.681075409999999e-02 -2.696345060000000e-02 9.882814730000000e-02 -2.560464950000000e-02
308743119.0000000000 8.325353340000000e-02 -2.895470070000000e-02 8.345437729999999e-02 -3.059120280000000e-02 -3.094537630000000e-01 3.228373070000000e-02 -1.065027390000000e-01 -4.577976150000000e-01
            8.345355030000000e-02 -3.059802000000000e-02 8.216617930000000e-02 -3.176849660000000e-02 -1.058808540000000e-01 -4.583632320000000e-01 -3.093759340000000e-01 3.240802240000000e-02
            -3.094573200000000e-01 3.230358450000000e-02 -1.058828140000000e-01 -4.583662850000000e-01 8.328917110000000e-02 -3.333729990000000e-02 8.293563730000000e-02 -3.040175820000000e-02
            -1.064864190000000e-01 -4.577967620000000e-01 -3.093813960000000e-01 3.240415730000000e-02 8.293681590000000e-02 -3.040393060000000e-02 8.484665199999999e-02 -2.927480560000000e-02
309242702.0000000000 6.906216490000000e-02 -2.591699600000000e-02 6.926756150000001e-02 -2.725805340000000e-02 -2.962649610000000e-01 1.034054590000000e-01 -2.107590010000000e-01 -4.197812640000000e-01
            6.928054910000001e-02 -2.726843280000000e-02 6.796787260000001e-02 -2.875050940000000e-02 -2.102966210000000e-01 -4.204921210000000e-01 -2.961635430000000e-01 1.034875510000000e-01
            -2.962610880000000e-01 1.033936880000000e-01 -2.102918780000000e-01 -4.204985690000000e-01 6.902658640000001e-02 -3.018169150000000e-02 6.889050730000000e-02 -2.705201800000000e-02
            -2.107683400000000e-01 -4.197960290000000e-01 -2.961518990000000e-01 1.034883490000000e-01 6.889846270000000e-02 -2.704357030000000e-02 7.056497460000000e-02 -2.614847660000000e-02
309742285.0000000000 5.777461130000000e-02 -1.657888830000000e-02 5.816795460000000e-02 -1.767551960000000e-02 -2.667019440000000e-01 1.708569300000000e-01 -3.030682010000000e-01 -3.577040720000000e-01
            5.817155590000000e-02 -1.768273360000000e-02 5.667745310000000e-02 -1.941260530000000e-02 -3.027644300000000e-01 -3.585186000000000e-01 -2.665850800000000e-01 1.709152000000000e-01
            -2.666907950000000e-01 1.708504480000000e-01 -3.027742720000000e-01 -3.585117380000000e-01 5.771026520000000e-02 -2.071897380000000e-02 5.791638450000000e-02 -1.749840370000000e-02
            -3.030686360000000e-01 -3.577089780000000e-01 -2.665929400000000e-01 1.709242650000000e-01 5.790082040000000e-02 -1.749548910000000e-02 5.925626150000000e-02 -1.669015590000000e-02
310241868.0000000000 5.208994750000000e-02 -2.960311580000000e-03 5.277508880000000e-02 -3.938924340000000e-03 -2.213195010000000e-01 2.306203670000000e-01 -3.774786350000000e-01 -2.753375140000000e-01
            5.278407080000000e-02 -3.934204620000000e-03 5.100631640000000e-02 -5.799187920000000e-03 -3.773702770000000e-01 -2.761948860000000e-01 -2.211811530000000e-01 2.306635210000000e-01
            -2.213263910000000e-01 2.306283920000000e-01 -3.773692170000000e-01 -2.761828640000000e-01 5.207474840000000e-02 -6.991816420000000e-03 5.259179650000000e-02 -3.855733180000000e-03
            -3.774580910000000e-01 -2.753220810000000e-01 -2.211831610000000e-01 2.306647510000000e-01 5.259733980000000e-02 -3.856902480000000e-03 5.361268780000000e-02 -2.967713510000000e-03
310741451.0000000000 5.339541550000000e-02 1.176676600000000e-02 5.442862320000000e-02 1.075818380000000e-02 -1.619107400000000e-01 2.784939200000000e-01 -4.294444700000000e-01 -1.780784780000000e-01
            5.443956130000000e-02 1.076031820000000e-02 5.233091490000000e-02 8.926346010000001e-03 -4.295492530000000e-01 -1.789577410000000e-01 -1.617774840000000e-01 2.784994520000000e-01
            -1.619186180000000e-01 2.785070090000000e-01 -4.295343890000000e-01 -1.789541720000000e-01 5.345179280000000e-02 7.787970150000000e-03 5.425902790000000e-02 1.073868830000000e-02
            -4.294377240000000e-01 -1.780827200000000e-01 -1.617751810000000e-01 2.785004190000000e-01 5.426364890000000e-02 1.073386350000000e-02 5.497190210000000e-02 1.182890490000000e-02
311241034.0000000000 6.141076570000000e-02 2.415722440000000e-02 6.272941520000000e-02 2.292962390000000e-02 -9.183402559999999e-02 3.107217250000000e-01 -4.564324770000000e-01 -7.239430610000000e-02
            6.273115070000000e-02 2.293310380000000e-02 6.034225980000000e-02 2.133396970000000e-02 -4.567428760000000e-01 -7.319464790000001e-02 -9.169526309999999e-02 3.106824640000000e-01
            -9.184918189999999e-02 3.107126020000000e-01 -4.567486000000000e-01 -7.319518930000000e-02 6.152423930000000e-02 2.022871500000000e-02 6.251999179999999e-02 2.282314440000000e-02
            -4.564251200000000e-01 -7.237278560000000e-02 -9.168950789999999e-02 3.106892540000000e-01 6.252598850000000e-02 2.282939040000000e-02 6.305676080000000e-02 2.423370130000000e-02
311740617.0000000000 7.414912329999999e-02 3.138561260000000e-02 7.565816409999999e-02 2.983569410000000e-02 -1.563771710000000e-02 3.247689810000000e-01 -4.578761100000000e-01 3.533401970000000e-02
            7.567762470000000e-02 2.985360070000000e-02 7.308165240000000e-02 2.857420390000000e-02 -4.583769590000000e-01 3.461387810000000e-02 -1.548770970000000e-02 3.246992800000000e-01
            -1.563456520000000e-02 3.247609820000000e-01 -4.583848680000000e-01 3.460332410000000e-02 7.435190310000001e-02 2.743568890000000e-02 7.535961530000000e-02 2.966286870000000e-02
            -4.578819730000000e-01 3.533700090000000e-02 -1.550572960000000e-02 3.246817700000000e-01 7.536527899999999e-02 2.967168900000000e-02 7.585825710000001e-02 3.146652790000000e-02
312240200.0000000000 8.866681250000000e-02 3.198618370000000e-02 9.019296420000000e-02 3.001816780000000e-02 6.157038490000000e-02 3.197507440000000e-01 -4.348501610000000e-01 1.391918260000000e-01
            9.020615070000000e-02 3.003094240000000e-02 8.759714030000000e-02 2.916134130000000e-02 -4.355023330000000e-01 1.386077130000000e-01 6.166401520000000e-02 3.196551360000000e-01
            6.155118650000000e-02 3.197504000000000e-01 -4.355090530000000e-01 1.385939770000000e-01 8.893244270000000e-02 2.798732170000000e-02 8.979317810000000e-02 2.987096300000000e-02
            -4.348350880000000e-01 1.392036750000000e-01 6.167240910000000e-02 3.196486130000000e-01 8.978617440000000e-02 2.986026990000000e-02 9.039332520000000e-02 3.199690120000000e-02
312739783.0000000000 1.017022810000000e-01 2.598183870000000e-02 1.031275440000000e-01 2.364230000000000e-02 1.348044760000000e-01 2.964735340000000e-01 -3.894328610000000e-01 2.342172340000000e-01
            1.031256800000000e-01 2.364026610000000e-02 1.006582010000000e-01 2.315750910000000e-02 -3.902171090000000e-01 2.337971070000000e-01 1.348744270000000e-01 2.963477190000000e-01
            1.348117660000000e-01 2.964625530000000e-01 -3.902127390000000e-01 2.337920090000000e-01 1.020080880000000e-01 2.189962970000000e-02 1.025802380000000e-01 2.352367230000000e-02
            -3.894319670000000e-01 2.342313160000000e-01 1.348827830000000e-01 2.963557510000000e-01 1.025946070000000e-01 2.352614830000000e-02 1.034795390000000e-01 2.593491590000000e-02
313239366.0000000000 1.105910310000000e-01 1.486430520000000e-02 1.117090800000000e-01 1.218340320000000e-02 1.999400340000000e-01 2.569887150000000e-01 -3.243245260000000e-01 3.162009080000000e-01
            1.117248970000000e-01 1.217888000000000e-02 1.095613580000000e-01 1.201869860000000e-02 -3.252014930000000e-01 3.159574400000000e-01 1.999930110000000e-01 2.568468580000000e-01
            1.999307660000000e-01 2.569871870000000e-01 -3.251891680000000e-01 3.159463600000000e-01 1.108759790000000e-01 1.068710420000000e-02 1.110876920000000e-01 1.217106230000000e-02
            -3.243146830000000e-01 3.161931920000000e-01 1.999863470000000e-01 2.568473510000000e-01 1.110842640000000e-01 1.217385830000000e-02 1.123519620000000e-01 1.472043190000000e-02
313738949.0000000000 1.135195580000000e-01 9.827158220000001e-04 1.142537720000000e-01 -1.841347450000000e-03 2.538259830000000e-01 2.040895660000000e-01 -2.426997210000000e-01 3.814846450000000e-01
            1.142558100000000e-01 -1.833821740000000e-03 1.125014590000000e-01 -1.845342990000000e-03 -2.436056160000000e-01 3.814503810000000e-01 2.538566990000000e-01 2.039523800000000e-01
            2.538440760000000e-01 2.041011080000000e-01 -2.436139540000000e-01 3.814406990000000e-01 1.137562280000000e-01 -3.253717880000000e-03 1.135971080000000e-01 -1.717077350000000e-03
            -2.427046850000000e-01 3.814816720000000e-01 2.538710730000000e-01 2.039449620000000e-01 1.136045030000000e-01 -1.706767710000000e-03 1.152195360000000e-01 7.870960030000000e-04
314238532.0000000000 1.099395310000000e-01 -1.269222640000000e-02 1.102686800000000e-01 -1.550366620000000e-02 2.943402140000000e-01 1.408520300000000e-01 -1.482502780000000e-01 4.268921930000000e-01
            1.102616620000000e-01 -1.552264670000000e-02 1.089058160000000e-01 -1.553999130000000e-02 -1.491553910000000e-01 4.270498930000000e-01 2.943149030000000e-01 1.406869380000000e-01
            2.943282570000000e-01 1.408376880000000e-01 -1.491459510000000e-01 4.270642810000000e-01 1.101215310000000e-01 -1.700655260000000e-02 1.096246060000000e-01 -1.525394010000000e-02
            -1.482550250000000e-01 4.268791780000000e-01 2.942932210000000e-01 1.406858780000000e-01 1.096174410000000e-01 -1.525184810000000e-02 1.115509760000000e-01 -1.294181110000000e-02
314738115.0000000000 1.005745460000000e-01 -2.332126130000000e-02 1.005508300000000e-01 -2.598338060000000e-02 3.198787100000000e-01 7.025515290000001e-02 -4.536365030000000e-02 4.496716910000000e-01
            1.005562780000000e-01 -2.599123120000000e-02 9.954718220000000e-02 -2.619366410000000e-02 -4.620602880000000e-02 4.500405040000000e-01 3.198323000000000e-01 7.010056090000000e-02
            3.198790200000000e-01 7.026130790000000e-02 -4.619739380000000e-02 4.500421570000000e-01 1.006503160000000e-01 -2.769339190000000e-02 9.995820300000000e-02 -2.561229110000000e-02
            -4.537486760000000e-02 4.496682350000000e-01 3.198325300000000e-01 7.010013780000000e-02 9.996294590000000e-02 -2.562292230000000e-02 1.020749540000000e-01 -2.359841900000000e-02
315237698.0000000000 8.733111720000000e-02 -2.861048700000000e-02 8.704942740000000e-02 -3.097420160000000e-02 3.293729720000000e-01 -4.684557470000000e-03 6.069339180000000e-02 4.479157280000000e-01
            8.706568490000000e-02 -3.096992820000000e-02 8.629639130000000e-02 -3.148112710000000e-02 5.996203970000000e-02 4.484821530000000e-01 3.292761960000000e-01 -4.824520010000000e-03
            3.293812340000000e-01 -4.685648110000000e-03 5.995925400000000e-02 4.484710880000000e-01 8.727274110000000e-02 -3.296767510000000e-02 8.656876930000000e-02 -3.050234800000000e-02
            6.068743270000000e-02 4.479157400000000e-01 3.292910010000000e-01 -4.819562550000000e-03 8.657446820000000e-02 -3.051090890000000e-02 8.873140979999999e-02 -2.889235880000000e-02
315737281.0000000000 7.301846300000001e-02 -2.724399450000000e-02 7.268995300000000e-02 -2.926557430000000e-02 3.219218690000000e-01 -8.077564680000000e-02 1.639480110000000e-01 4.209597840000000e-01
            7.268497660000001e-02 -2.927387710000000e-02 7.199394680000000e-02 -3.009655630000000e-02 1.633429890000000e-01 4.216975790000000e-01 3.218095440000000e-01 -8.089582540000000e-02
            3.219296860000000e-01 -8.077905360000000e-02 1.633402640000000e-01 4.216786790000000e-01 7.284613970000001e-02 -3.156495530000000e-02 7.231547480000000e-02 -2.875063090000000e-02
            1.639357020000000e-01 4.209508210000000e-01 3.218122180000000e-01 -8.088240900000000e-02 7.229894510000000e-02 -2.875575360000000e-02 7.428692639999999e-02 -2.748546900000000e-02
316236864.0000000000 6.086524760000000e-02 -1.935834950000000e-02 6.064390600000000e-02 -2.108800230000000e-02 2.970093070000000e-01 -1.543865980000000e-01 2.579338700000000e-01 3.698713920000000e-01
            6.064922270000000e-02 -2.108191750000000e-02 5.984147570000000e-02 -2.222584270000000e-02 2.575284360000000e-01 3.707395120000000e-01 2.968687220000000e-01 -1.544788300000000e-01
            2.970093110000000e-01 -1.543806240000000e-01 2.575228710000000e-01 3.707183470000000e-01 6.060464280000000e-02 -2.362030310000000e-02 6.035934890000000e-02 -2.055827530000000e-02
            2.579204700000000e-01 3.698739620000000e-01 2.968662440000000e-01 -1.544715300000000e-01 6.036887570000000e-02 -2.057113650000000e-02 6.203890210000000e-02 -1.954960920000000e-02
316736447.0000000000 5.373094180000000e-02 -6.682393610000000e-03 5.375402090000000e-02 -8.182340230000000e-03 2.548875640000000e-01 -2.213609750000000e-01 3.366567250000000e-01 2.976548100000000e-01
            5.376295180000000e-02 -8.182001600000001e-03 5.271886890000000e-02 -9.526029190000000e-03 3.364634050000000e-01 2.985925090000000e-01 2.547448250000000e-01 -2.213980520000000e-01
            2.548980320000000e-01 -2.213515090000000e-01 3.364729660000000e-01 2.985714020000000e-01 5.335903890000000e-02 -1.083784350000000e-02 5.355690170000000e-02 -7.688911490000000e-03
            3.366579050000000e-01 2.976522510000000e-01 2.547393050000000e-01 -2.214117660000000e-01 5.354192790000000e-02 -7.699230320000000e-03 5.481529450000000e-02 -6.761879830000000e-03
317236030.0000000000 5.334051500000000e-02 7.907779659999999e-03 5.367406230000000e-02 6.430852130000000e-03 1.971030100000000e-01 -2.771704170000000e-01 3.952180780000000e-01 2.091163740000000e-01
            5.368050690000000e-02 6.423827240000000e-03 5.232888630000000e-02 5.056613710000000e-03 3.952566940000000e-01 2.100652910000000e-01 1.969221880000000e-01 -2.771790290000000e-01
            1.970997240000000e-01 -2.771772130000000e-01 3.952541890000000e-01 2.100753200000000e-01 5.293593490000000e-02 3.870243410000000e-03 5.353602410000000e-02 6.867758610000000e-03
            3.952194300000000e-01 2.091091150000000e-01 1.969441520000000e-01 -2.771938510000000e-01 5.352829230000000e-02 6.870223740000000e-03 5.436680850000000e-02 7.903430289999999e-03
317735613.0000000000 5.977267840000000e-02 2.093092650000000e-02 6.042277320000000e-02 1.933779570000000e-02 1.266627410000000e-01 -3.176967450000000e-01 4.305329160000000e-01 1.101539170000000e-01
            6.042165770000000e-02 1.932811610000000e-02 5.877772440000000e-02 1.809764990000000e-02 4.307945940000000e-01 1.110831480000000e-01 1.264794190000000e-01 -3.176653320000000e-01
            1.266632210000000e-01 -3.176993270000000e-01 4.307856910000000e-01 1.110770840000000e-01 5.936463300000000e-02 1.701536210000000e-02 6.028162540000000e-02 1.973792590000000e-02
            4.305433190000000e-01 1.101590780000000e-01 1.264923670000000e-01 -3.176624090000000e-01 6.029283290000000e-02 1.971923640000000e-02 6.078361450000000e-02 2.108151350000000e-02
318235196.0000000000 7.146663690000001e-02 2.945383620000000e-02 7.231953810000000e-02 2.753498550000000e-02 4.804374520000000e-02 -3.398241270000000e-01 4.414275560000000e-01 7.009983710000000e-03
            7.231309780000000e-02 2.754206180000000e-02 7.047256000000000e-02 2.661018700000000e-02 4.419083580000000e-01 7.874765680000000e-03 4.787021180000000e-02 -3.397687510000000e-01
            4.802522170000000e-02 -3.398325760000000e-01 4.418917110000000e-01 7.860059670000001e-03 7.105347490000000e-02 2.565405580000000e-02 7.216075869999999e-02 2.791030550000000e-02
            4.414415640000000e-01 7.011923150000000e-03 4.787204280000000e-02 -3.397708500000000e-01 7.216373550000001e-02 2.791422410000000e-02 7.245487150000000e-02 2.969561700000000e-02
318734779.0000000000 8.563127370000000e-02 3.160683040000000e-02 8.652994610000000e-02 2.929928940000000e-02 -3.354547210000000e-02 -3.420957500000000e-01 4.284385800000000e-01 -9.451449100000001e-02
            8.652728390000000e-02 2.930461190000000e-02 8.463112690000001e-02 2.875517330000000e-02 4.291083380000000e-01 -9.381612180000000e-02 -3.370010320000000e-02 -3.420029440000000e-01
            -3.355290030000000e-02 -3.420826930000000e-01 4.290969940000000e-01 -9.380383550000000e-02 8.527771850000000e-02 2.791071740000000e-02 8.635481809999999e-02 2.966913610000000e-02
            4.284523740000000e-01 -9.451355670000000e-02 -3.369334510000000e-02 -3.419912030000000e-01 8.634067060000000e-02 2.966606220000000e-02 8.667328639999999e-02 3.195427210000000e-02
319234362.0000000000 9.908123260000000e-02 2.711160980000000e-02 9.984406360000000e-02 2.439136070000000e-02 -1.128302250000000e-01 -3.247453290000000e-01 3.932267870000000e-01 -1.894293380000000e-01
            9.983461310000000e-02 2.439181320000000e-02 9.809807149999999e-02 2.426232180000000e-02 3.940385410000000e-01 -1.888834760000000e-01 -1.129523640000000e-01 -3.246283780000000e-01
            -1.128313530000000e-01 -3.247509160000000e-01 3.940317920000000e-01 -1.888787620000000e-01 9.878758040000001e-02 2.351375100000000e-02 9.964649310000000e-02 2.480343240000000e-02
            3.932085090000000e-01 -1.894378340000000e-01 -1.129539470000000e-01 -3.246219580000000e-01 9.964198300000000e-02 2.479093440000000e-02 1.001727650000000e-01 2.757326970000000e-02
319733945.0000000000 1.089791140000000e-01 1.712309770000000e-02 1.094006600000000e-01 1.404251720000000e-02 -1.851996420000000e-01 -2.895060070000000e-01 3.380812670000000e-01 -2.734769400000000e-01
            1.093994310000000e-01 1.403770980000000e-02 1.079957660000000e-01 1.424968590000000e-02 3.389843340000000e-01 -2.731216440000000e-01 -1.852914860000000e-01 -2.893462800000000e-01
            -1.852075770000000e-01 -2.895044640000000e-01 3.389783400000000e-01 -2.731248720000000e-01 1.087621750000000e-01 1.356366600000000e-02 1.092087070000000e-01 1.450010860000000e-02
            3.380707350000000e-01 -2.734819280000000e-01 -1.853116060000000e-01 -2.893425550000000e-01 1.092051520000000e-01 1.449753330000000e-02 1.101127290000000e-01 1.763298420000000e-02
320233528.0000000000 1.133156280000000e-01 3.832007550000000e-03 1.132612070000000e-01 5.383190720000000e-04 -2.470261560000000e-01 -2.389836980000000e-01 2.657624140000000e-01 -3.429551080000000e-01
            1.132707270000000e-01 5.347071040000000e-04 1.123430760000000e-01 9.764166200000000e-04 2.667480110000000e-01 -3.428184640000000e-01 -2.470686510000000e-01 -2.388107310000000e-01
            -2.470357190000000e-01 -2.389966920000000e-01 2.667438120000000e-01 -3.428142350000000e-01 1.131816550000000e-01 3.022604770000000e-04 1.130831440000000e-01 1.072445690000000e-03
            2.657728010000000e-01 -3.429515910000000e-01 -2.470688230000000e-01 -2.388002120000000e-01 1.131026110000000e-01 1.079254030000000e-03 1.145337950000000e-01 4.370258130000000e-03
320733111.0000000000 1.112378520000000e-01 -9.972099020000000e-03 1.106375980000000e-01 -1.327690560000000e-02 -2.955983800000000e-01 -1.762196810000000e-01 1.795543600000000e-01 -3.945404350000000e-01
            1.106509870000000e-01 -1.327891960000000e-02 1.102792910000000e-01 -1.282438010000000e-02 1.805434210000000e-01 -3.946355910000000e-01 -2.956171540000000e-01 -1.760471720000000e-01
            -2.956047770000000e-01 -1.762347820000000e-01 1.805369270000000e-01 -3.946415550000000e-01 1.111963090000000e-01 -1.349036210000000e-02 1.105601450000000e-01 -1.268712680000000e-02
            1.795540240000000e-01 -3.945322650000000e-01 -2.956227580000000e-01 -1.760385510000000e-01 1.105639680000000e-01 -1.269789270000000e-02 1.125410080000000e-01 -9.405308400000000e-03
321232694.0000000000 1.032113140000000e-01 -2.140341400000000e-02 1.020755580000000e-01 -2.450155600000000e-02 -3.290405080000000e-01 -1.043630510000000e-01 8.338418640000000e-02 -4.253230300000000e-01
            1.020802480000000e-01 -2.448854870000000e-02 1.022477880000000e-01 -2.426917070000000e-02 8.433182440000001e-02 -4.256439080000000e-01 -3.290120350000000e-01 -1.041867100000000e-01
            -3.290533520000000e-01 -1.043643930000000e-01 8.432821860000000e-02 -4.256276960000000e-01 1.032299340000000e-01 -2.493420160000000e-02 1.020755740000000e-01 -2.388483020000000e-02
            8.337899729999999e-02 -4.253221450000000e-01 -3.289914140000000e-01 -1.041810900000000e-01 1.020772030000000e-01 -2.386092420000000e-02 1.045613230000000e-01 -2.083125370000000e-02
321732277.0000000000 9.082025300000000e-02 -2.798725030000000e-02 8.928017500000000e-02 -3.072605560000000e-02 -3.459119330000000e-01 -2.654001030000000e-02 -1.797148010000000e-02 -4.330414730000000e-01
            8.925575240000000e-02 -3.071941530000000e-02 8.986594290000000e-02 -3.087666170000000e-02 -1.710813960000000e-02 -4.335958920000000e-01 -3.458161940000000e-01 -2.636956040000000e-02
            -3.458952170000000e-01 -2.654595210000000e-02 -1.710444330000000e-02 -4.335906090000000e-01 9.090426570000000e-02 -3.157052700000000e-02 8.937447079999999e-02 -3.008706480000000e-02
            -1.796789090000000e-02 -4.330361990000000e-01 -3.458102060000000e-01 -2.637457340000000e-02 8.936772200000000e-02 -3.008517510000000e-02 9.223721870000000e-02 -2.747932860000000e-02
322231860.0000000000 7.670372850000000e-02 -2.825277560000000e-02 7.489538620000000e-02 -3.044094800000000e-02 -3.450521870000000e-01 5.390694380000000e-02 -1.188820450000000e-01 -4.165117910000000e-01
            7.489448210000001e-02 -3.045145000000000e-02 7.575582829999999e-02 -3.112354450000000e-02 -1.181468320000000e-01 -4.172546270000000e-01 -3.449458500000000e-01 5.406938750000000e-02
            -3.450521540000000e-01 5.391172550000000e-02 -1.181603470000000e-01 -4.172593740000000e-01 7.679901629999999e-02 -3.187400930000000e-02 7.512386879999999e-02 -2.986105050000000e-02
            -1.188772710000000e-01 -4.165301520000000e-01 -3.449345310000000e-01 5.404514110000000e-02 7.510824920000000e-02 -2.985938620000000e-02 7.814966950000000e-02 -2.776859420000000e-02
322731443.0000000000 6.400151390000000e-02 -2.194076660000000e-02 6.212812350000000e-02 -2.358340350000000e-02 -3.257586430000000e-01 1.332082990000000e-01 -2.131738240000000e-01 -3.761537340000000e-01
            6.212510940000000e-02 -2.358681250000000e-02 6.302187150000001e-02 -2.482977160000000e-02 -2.126514710000000e-01 -3.770489020000000e-01 -3.256098180000000e-01 1.333567720000000e-01
            -3.257457260000000e-01 1.332257180000000e-01 -2.126411590000000e-01 -3.770494530000000e-01 6.407616710000000e-02 -2.562933770000000e-02 6.242354420000000e-02 -2.306580400000000e-02
            -2.131753390000000e-01 -3.761425950000000e-01 -3.255962630000000e-01 1.333459940000000e-01 6.242251270000000e-02 -2.307265020000000e-02 6.542475690000001e-02 -2.151936560000000e-02
323231026.0000000000 5.561989970000000e-02 -1.041827610000000e-02 5.392462130000000e-02 -1.153038900000000e-02 -2.879739230000000e-01 2.070849140000000e-01 -2.948438910000000e-01 -3.142461700000000e-01
            5.390761950000000e-02 -1.153366800000000e-02 5.465616710000000e-02 -1.329182910000000e-02 -2.945210390000000e-01 -3.152208900000000e-01 -2.877930780000000e-01 2.071884720000000e-01
            -2.879745990000000e-01 2.070914600000000e-01 -2.945138900000000e-01 -3.152181760000000e-01 5.567053180000000e-02 -1.412501300000000e-02 5.428440350000000e-02 -1.112364380000000e-02
            -2.948151180000000e-01 -3.142339880000000e-01 -2.877896910000000e-01 2.071819940000000e-01 5.428496970000000e-02 -1.112810700000000e-02 5.702897270000000e-02 -1.002131080000000e-02
323730609.0000000000 5.360462420000000e-02 3.697986770000000e-03 5.222922830000000e-02 2.971583070000000e-03 -2.329141760000000e-01 2.708231490000000e-01 -3.586769690000000e-01 -2.348336770000000e-01
            5.222370810000000e-02 2.963476140000000e-03 5.264905890000000e-02 8.244407500000000e-04 -3.586142800000000e-01 -2.358681480000000e-01 -2.327223760000000e-01 2.708595930000000e-01
            -2.329098160000000e-01 2.708114290000000e-01 -3.586187460000000e-01 -2.358641360000000e-01 5.359801700000000e-02 -3.798210170000000e-05 5.257745540000000e-02 3.282373070000000e-03
            -3.586754370000000e-01 -2.348291780000000e-01 -2.327210680000000e-01 2.708523110000000e-01 5.259275880000000e-02 3.283698090000000e-03 5.495181860000000e-02 4.076812610000000e-03
324230192.0000000000 5.839503240000000e-02 1.707602160000000e-02 5.745030330000000e-02 1.652020320000000e-02 -1.632870150000000e-01 3.198868890000000e-01 -4.011733770000000e-01 -1.433725260000000e-01
            5.743181740000000e-02 1.653203450000000e-02 5.744841770000000e-02 1.419806110000000e-02 -4.013763350000000e-01 -1.444048580000000e-01 -1.630744190000000e-01 3.198558250000000e-01
            -1.632813420000000e-01 3.198681920000000e-01 -4.013576130000000e-01 -1.443877460000000e-01 5.832618640000000e-02 1.334879290000000e-02 5.775971140000000e-02 1.675932310000000e-02
            -4.011953760000000e-01 -1.433724950000000e-01 -1.630831180000000e-01 3.198508390000000e-01 5.776099860000000e-02 1.676361800000000e-02 5.965477450000000e-02 1.743570740000000e-02
324729775.0000000000 6.880522159999999e-02 2.657619350000000e-02 6.827569850000000e-02 2.603708500000000e-02 -8.333788960000001e-02 3.506186450000000e-01 -4.206376440000000e-01 -4.572963710000000e-02
            6.826490920000000e-02 2.603001890000000e-02 6.786137560000000e-02 2.370236350000000e-02 -4.210571530000000e-01 -4.670757300000000e-02 -8.312723540000000e-02 3.505547560000000e-01
            -8.332932910000000e-02 3.506187420000000e-01 -4.210667380000000e-01 -4.669738630000000e-02 6.865972690000000e-02 2.291582640000000e-02 6.853161730000000e-02 2.624644550000000e-02
            -4.206476060000000e-01 -4.574520180000000e-02 -8.314508060000000e-02 3.505431960000000e-01 6.854088820000000e-02 2.624397660000000e-02 6.999333540000000e-02 2.698679530000000e-02
325229358.0000000000 8.231284749999999e-02 3.014267040000000e-02 8.210412250000000e-02 2.944742140000000e-02 1.693475660000000e-03 3.609476550000000e-01 -4.170423730000000e-01 5.237921330000000e-02
            8.210976160000000e-02 2.944275890000000e-02 8.137223010000000e-02 2.728791510000000e-02 -4.176885240000000e-01 5.155938030000000e-02 1.866152280000000e-03 3.608442650000000e-01
            1.690639000000000e-03 3.609667990000000e-01 -4.176790370000000e-01 5.155252530000000e-02 8.212219260000000e-02 2.654521630000000e-02 8.231289070000000e-02 2.964185530000000e-02
            -4.170462990000000e-01 5.239623540000000e-02 1.866207050000000e-03 3.608555620000000e-01 8.231044880000001e-02 2.966478610000000e-02 8.342964120000000e-02 3.063225870000000e-02
325728941.0000000000 9.580000700000001e-02 2.715033690000000e-02 9.579362230000001e-02 2.614417570000000e-02 8.628888520000000e-02 3.505812460000000e-01 -3.915893320000000e-01 1.460312900000000e-01
            9.578713360000000e-02 2.613757510000000e-02 9.487881580000000e-02 2.428130230000000e-02 -3.924045360000000e-01 1.453734740000000e-01 8.644345010000000e-02 3.504288870000000e-01
            8.629604170000001e-02 3.505794430000000e-01 -3.924067570000000e-01 1.453790590000000e-01 9.559772470000000e-02 2.365054230000000e-02 9.595786010000000e-02 2.638487010000000e-02
            -3.916126900000000e-01 1.460316150000000e-01 8.644868679999999e-02 3.504304180000000e-01 9.595227810000000e-02 2.638049810000000e-02 9.688886710000000e-02 2.773277340000000e-02
326228524.0000000000 1.063671180000000e-01 1.839644230000000e-02 1.063807320000000e-01 1.707751180000000e-02 1.654927910000000e-01 3.207494920000000e-01 -3.462228790000000e-01 2.309273940000000e-01
            1.063671080000000e-01 1.707391590000000e-02 1.054531270000000e-01 1.551942110000000e-02 -3.471669040000000e-01 2.304519050000000e-01 1.656063430000000e-01 3.205573470000000e-01
            1.654829460000000e-01 3.207335380000000e-01 -3.471633440000000e-01 2.304573930000000e-01 1.061633310000000e-01 1.501601160000000e-02 1.065356670000000e-01 1.738560200000000e-02
            -3.462314060000000e-01 2.309106680000000e-01 1.656060150000000e-01 3.205552160000000e-01 1.065429140000000e-01 1.738617830000000e-02 1.074513040000000e-01 1.912255770000000e-02
326728107.0000000000 1.117999390000000e-01 5.891891760000000e-03 1.116624300000000e-01 4.308297030000000e-03 2.350823880000000e-01 2.738087750000000e-01 -2.832897590000000e-01 3.033258700000000e-01
            1.116554950000000e-01 4.302479730000000e-03 1.109073770000000e-01 3.012399160000000e-03 -2.843305160000000e-01 3.030784860000000e-01 2.351507660000000e-01 2.736048450000000e-01
            2.350907200000000e-01 2.737996390000000e-01 -2.843358860000000e-01 3.030953680000000e-01 1.116579260000000e-01 2.633409160000000e-03 1.118559390000000e-01 4.659234350000000e-03
            -2.832967890000000e-01 3.033305930000000e-01 2.351517070000000e-01 2.736161220000000e-01 1.118469820000000e-01 4.663448310000000e-03 1.129227530000000e-01 6.738912370000000e-03
327227690.0000000000 1.110413870000000e-01 -7.722787740000000e-03 1.106032630000000e-01 -9.470357330000000e-03 2.919419110000000e-01 2.127187850000000e-01 -2.056808340000000e-01 3.598807290000000e-01
            1.105873370000000e-01 -9.459647460000000e-03 1.101611250000000e-01 -1.061074690000000e-02 -2.067378790000000e-01 3.598756560000000e-01 2.919693680000000e-01 2.124954070000000e-01
            2.919449130000000e-01 2.127116140000000e-01 -2.067351670000000e-01 3.598822810000000e-01 1.109793180000000e-01 -1.086662500000000e-02 1.108895430000000e-01 -9.044997129999999e-03
            -2.056670040000000e-01 3.598875590000000e-01 2.919599320000000e-01 2.125018750000000e-01 1.108795010000000e-01 -9.041103220000001e-03 1.122534410000000e-01 -6.758316570000000e-03
327727273.0000000000 1.042464910000000e-01 -1.955172460000000e-02 1.034405830000000e-01 -2.129771490000000e-02 3.336937690000000e-01 1.406379700000000e-01 -1.168254160000000e-01 3.975139910000000e-01
            1.034233770000000e-01 -2.129022300000000e-02 1.033481060000000e-01 -2.245898390000000e-02 -1.178748530000000e-01 3.977543440000000e-01 3.336686970000000e-01 1.404046420000000e-01
            3.336840230000000e-01 1.406303760000000e-01 -1.178835800000000e-01 3.977643960000000e-01 1.042969450000000e-01 -2.264519350000000e-02 1.038389660000000e-01 -2.087771420000000e-02
            -1.168388140000000e-01 3.975099190000000e-01 3.336642740000000e-01 1.404127620000000e-01 1.038388310000000e-01 -2.088025820000000e-02 1.055530270000000e-01 -1.851181400000000e-02
328226856.0000000000 9.275860190000000e-02 -2.711204500000000e-02 9.161511520000000e-02 -2.865881010000000e-02 3.585616650000000e-01 6.083613880000000e-02 -2.109021100000000e-02 4.137010620000000e-01
            9.161766680000000e-02 -2.866013930000000e-02 9.185838600000000e-02 -2.999776870000000e-02 -2.205353570000000e-02 4.141875250000000e-01 3.584869710000000e-01 6.061590090000000e-02
            3.585564120000000e-01 6.083672470000000e-02 -2.207025580000000e-02 4.141759970000000e-01 9.293512610000000e-02 -3.015424360000000e-02 9.214098190000000e-02 -2.828281360000000e-02
            -2.107958830000000e-02 4.136962530000000e-01 3.584696390000000e-01 6.062293760000000e-02 9.214719870000000e-02 -2.827493820000000e-02 9.419628240000000e-02 -2.602076730000000e-02
328726439.0000000000 7.898214440000000e-02 -2.863997110000000e-02 7.758130960000000e-02 -2.983936000000000e-02 3.650963340000000e-01 -2.324629280000000e-02 7.632457989999999e-02 4.068153620000000e-01
            7.758188860000000e-02 -2.984537950000000e-02 7.808305929999999e-02 -3.153067590000000e-02 7.550202350000000e-02 4.075292410000000e-01 3.649778300000000e-01 -2.341729800000000e-02
            3.651021080000000e-01 -2.323109500000000e-02 7.550572200000000e-02 4.075407550000000e-01 7.929688109999999e-02 -3.167039440000000e-02 7.821942229999999e-02 -2.956372300000000e-02
            7.633884090000000e-02 4.068344020000000e-01 3.649690130000000e-01 -2.341325810000000e-02 7.822438790000000e-02 -2.956750260000000e-02 8.054042700000000e-02 -2.753805260000000e-02
329226022.0000000000 6.594600110000000e-02 -2.361779940000000e-02 6.443862039999999e-02 -2.441047700000000e-02 3.523114080000000e-01 -1.077008020000000e-01 1.696080570000000e-01 3.767062130000000e-01
            6.444588000000000e-02 -2.440253980000000e-02 6.503484930000000e-02 -2.652662050000000e-02 1.689602330000000e-01 3.775979750000000e-01 3.521333790000000e-01 -1.078472630000000e-01
            3.523019230000000e-01 -1.076970000000000e-01 1.689745870000000e-01 3.776019170000000e-01 6.636803310000000e-02 -2.671245370000000e-02 6.515468570000001e-02 -2.428863070000000e-02
            1.696044430000000e-01 3.767005420000000e-01 3.521300500000000e-01 -1.078456930000000e-01 6.516182719999999e-02 -2.427739890000000e-02 6.762987860000000e-02 -2.258121780000000e-02
329725605.0000000000 5.662989530000000e-02 -1.312053660000000e-02 5.521799830000000e-02 -1.343925830000000e-02 3.198399940000000e-01 -1.881022260000000e-01 2.527660450000000e-01 3.249297640000000e-01
            5.523169200000000e-02 -1.343872830000000e-02 5.571674210000000e-02 -1.602354070000000e-02 2.523563940000000e-01 3.259578530000000e-01 3.196468690000000e-01 -1.882091080000000e-01
            3.198563280000000e-01 -1.880897760000000e-01 2.523550410000000e-01 3.259707510000000e-01 5.715854260000000e-02 -1.627094500000000e-02 5.595775390000000e-02 -1.346628160000000e-02
            2.527773900000000e-01 3.249331600000000e-01 3.196453290000000e-01 -1.882181620000000e-01 5.595717090000000e-02 -1.348317270000000e-02 5.843185190000000e-02 -1.215084010000000e-02
330225188.0000000000 5.328848280000000e-02 5.334292370000000e-04 5.212305710000000e-02 6.291842910000000e-04 2.685658530000000e-01 -2.595209980000000e-01 3.205219600000000e-01 2.549553310000000e-01
            5.213400820000000e-02 6.192114720000000e-04 5.237985860000000e-02 -2.351587330000000e-03 3.203550970000000e-01 2.560369520000000e-01 2.683438900000000e-01 -2.596029040000000e-01
            2.685836650000000e-01 -2.595343490000000e-01 3.203573670000000e-01 2.560336100000000e-01 5.386709450000000e-02 -2.698984130000000e-03 5.278181920000000e-02 4.116973540000000e-04
            3.205173320000000e-01 2.549354850000000e-01 2.683371930000000e-01 -2.596105310000000e-01 5.278635900000000e-02 4.229859570000000e-04 5.514352220000000e-02 1.413104780000000e-03
330724771.0000000000 5.670171690000000e-02 1.414823560000000e-02 5.591431240000000e-02 1.451151450000000e-02 2.008610280000000e-01 -3.171183840000000e-01 3.689524580000000e-01 1.715647800000000e-01
            5.590677390000000e-02 1.450715110000000e-02 5.579163420000000e-02 1.125335800000000e-02 3.690477310000000e-01 1.726615640000000e-01 2.006228730000000e-01 -3.171428220000000e-01
            2.008652690000000e-01 -3.171465410000000e-01 3.690408380000000e-01 1.726607220000000e-01 5.729193860000000e-02 1.081962850000000e-02 5.644412020000000e-02 1.416163770000000e-02
            3.689456940000000e-01 1.715449840000000e-01 2.006274330000000e-01 -3.171456700000000e-01 5.645688730000000e-02 1.415001740000000e-02 5.854612140000000e-02 1.494870430000000e-02
331224354.0000000000 6.598067040000000e-02 2.452857060000000e-02 6.560919160000001e-02 2.499907850000000e-02 1.207141500000000e-01 -3.567708060000000e-01 3.959049460000000e-01 8.029459160000001e-02
            6.563857950000000e-02 2.499221670000000e-02 6.510968170000000e-02 2.164364700000000e-02 3.962649270000000e-01 8.134753440000000e-02 1.204764220000000e-01 -3.567339610000000e-01
            1.207117830000000e-01 -3.567861200000000e-01 3.962735490000000e-01 8.135462990000000e-02 6.655058400000000e-02 2.112879220000000e-02 6.602255370000000e-02 2.458871340000000e-02
            3.959168590000000e-01 8.028201670000000e-02 1.204787330000000e-01 -3.567197560000000e-01 6.602181020000000e-02 2.457542780000000e-02 6.779854600000000e-02 2.523738420000000e-02
331723937.0000000000 7.891416150000000e-02 2.937254290000000e-02 7.897017670000001e-02 2.978048210000000e-02 3.329364460000000e-02 -3.757515770000000e-01 4.009050000000000e-01 -1.339783320000000e-02
            7.897537210000000e-02 2.979280840000000e-02 7.804939190000000e-02 2.648879220000000e-02 4.014900020000000e-01 -1.244197160000000e-02 3.306545190000000e-02 -3.756536120000000e-01
            3.329687790000000e-02 -3.757413050000000e-01 4.014787410000000e-01 -1.242845090000000e-02 7.945589130000000e-02 2.592714250000000e-02 7.917270300000000e-02 2.938612070000000e-02
            4.009166480000000e-01 -1.338502860000000e-02 3.306466860000000e-02 -3.756578080000000e-01 7.918626480000000e-02 2.937469890000000e-02 8.068199220000000e-02 3.004694560000000e-02
332223520.0000000000 9.247664600000000e-02 2.771439380000000e-02 9.286552400000000e-02 2.796952160000000e-02 -5.575928020000000e-02 -3.731645450000000e-01 3.846965740000000e-01 -1.045948120000000e-01
            9.285614759999999e-02 2.796102680000000e-02 9.161142100000000e-02 2.484686510000000e-02 3.854940940000000e-01 -1.038030960000000e-01 -5.595617370000000e-02 -3.730077040000000e-01
            -5.577154780000000e-02 -3.731619340000000e-01 3.854887850000000e-01 -1.038010450000000e-01 9.297732600000000e-02 2.428116860000000e-02 9.294485199999999e-02 2.764398350000000e-02
            3.847001100000000e-01 -1.045870790000000e-01 -5.596662310000000e-02 -3.730117890000000e-01 9.294313410000000e-02 2.763938140000000e-02 9.416974810000001e-02 2.839318790000000e-02
332723103.0000000000 1.036784250000000e-01 2.013235370000000e-02 1.042823550000000e-01 2.011463780000000e-02 -1.410902360000000e-01 -3.497499700000000e-01 3.488172330000000e-01 -1.890747380000000e-01
            1.042968510000000e-01 2.012299690000000e-02 1.028217930000000e-01 1.723660970000000e-02 3.497728280000000e-01 -1.884952070000000e-01 -1.412559500000000e-01 -3.495483990000000e-01
            -1.410961110000000e-01 -3.497466530000000e-01 3.497750180000000e-01 -1.884895860000000e-01 1.041485280000000e-01 1.673493520000000e-02 1.042570950000000e-01 1.991420040000000e-02
            3.488143910000000e-01 -1.890794230000000e-01 -1.412512960000000e-01 -3.495550650000000e-01 1.042483810000000e-01 1.991555950000000e-02 1.053371080000000e-01 2.084384300000000e-02
333222686.0000000000 1.101905590000000e-01 8.365136719999999e-03 1.108678350000000e-01 8.070090550000001e-03 -2.181017920000000e-01 -3.075589450000000e-01 2.952853000000000e-01 -2.631544710000000e-01
            1.108756900000000e-01 8.060594189999999e-03 1.093491320000000e-01 5.467317410000000e-03 2.963468560000000e-01 -2.628082810000000e-01 -2.181995800000000e-01 -3.073135770000000e-01
            -2.180930130000000e-01 -3.075361630000000e-01 2.963425640000000e-01 -2.627969820000000e-01 1.106653360000000e-01 5.001724560000000e-03 1.108246590000000e-01 8.019422510000001e-03
            2.952952460000000e-01 -2.631420490000000e-01 -2.182036080000000e-01 -3.073177920000000e-01 1.108318720000000e-01 8.012614959999999e-03 1.118176500000000e-01 9.125915530000001e-03
333722269.0000000000 1.106913840000000e-01 -5.052601500000000e-03 1.113033910000000e-01 -5.589472560000000e-03 -2.831085380000000e-01 -2.493090700000000e-01 2.265066260000000e-01 -3.234290110000000e-01
            1.113267780000000e-01 -5.592561620000000e-03 1.098690750000000e-01 -7.956298220000000e-03 2.276464820000000e-01 -3.233139560000000e-01 -2.831785040000000e-01 -2.490698360000000e-01
            -2.831177400000000e-01 -2.493248660000000e-01 2.276306510000000e-01 -3.233147470000000e-01 1.111762280000000e-01 -8.349342460000001e-03 1.113392550000000e-01 -5.500672080000000e-03
            2.265184050000000e-01 -3.234079650000000e-01 -2.831554460000000e-01 -2.490730170000000e-01 1.113447780000000e-01 -5.480573850000000e-03 1.123405030000000e-01 -4.206765480000000e-03
334221852.0000000000 1.050855670000000e-01 -1.728721840000000e-02 1.055584400000000e-01 -1.799211540000000e-02 -3.333668020000000e-01 -1.782100010000000e-01 1.455487360000000e-01 -3.667322270000000e-01
            1.055767050000000e-01 -1.799963550000000e-02 1.042685170000000e-01 -2.019899040000000e-02 1.466719330000000e-01 -3.669220600000000e-01 -3.333677490000000e-01 -1.779561650000000e-01
            -3.333625450000000e-01 -1.782159600000000e-01 1.466748990000000e-01 -3.668935500000000e-01 1.056253250000000e-01 -2.051681660000000e-02 1.057175540000000e-01 -1.777590260000000e-02
            1.455512020000000e-01 -3.667362380000000e-01 -3.333594320000000e-01 -1.779533770000000e-01 1.057145690000000e-01 -1.778219590000000e-02 1.067775260000000e-01 -1.637994170000000e-02
334721435.0000000000 9.448656740000000e-02 -2.576542270000000e-02 9.477416100000000e-02 -2.646139060000000e-02 -3.666596410000000e-01 -9.753439010000001e-02 5.623263030000000e-02 -3.903682820000000e-01
            9.477215020000000e-02 -2.646518270000000e-02 9.364454110000001e-02 -2.866707520000000e-02 5.727543360000000e-02 -3.908032290000000e-01 -3.665934110000000e-01 -9.727167620000000e-02
            -3.666544520000000e-01 -9.752141139999999e-02 5.729346510000000e-02 -3.908058630000000e-01 9.511645650000000e-02 -2.893847020000000e-02 9.509410350000000e-02 -2.621232450000000e-02
            5.624342470000000e-02 -3.903840310000000e-01 -3.665934890000000e-01 -9.728241030000000e-02 9.510038040000000e-02 -2.622502280000000e-02 9.627918520000001e-02 -2.478808020000000e-02
335221018.0000000000 8.108128290000000e-02 -2.851994040000000e-02 8.120604610000000e-02 -2.912615970000000e-02 -3.812509140000000e-01 -1.080556000000000e-02 -3.671122790000000e-02 -3.923577790000000e-01
            8.121296159999999e-02 -2.912522080000000e-02 8.022794420000000e-02 -3.144300770000000e-02 -3.577251690000000e-02 -3.930138880000000e-01 -3.811304300000000e-01 -1.056663890000000e-02
            -3.812611170000000e-01 -1.081858360000000e-02 -3.578335050000000e-02 -3.930264960000000e-01 8.180043400000001e-02 -3.168120330000000e-02 8.173335499999999e-02 -2.894533770000000e-02
            -3.671802420000000e-02 -3.923685240000000e-01 -3.811327340000000e-01 -1.059309480000000e-02 8.172258410000000e-02 -2.892605210000000e-02 8.297815270000000e-02 -2.750733390000000e-02
335720601.0000000000 6.774524570000000e-02 -2.481186440000000e-02 6.780923699999999e-02 -2.521790780000000e-02 -3.758076970000000e-01 7.798668210000000e-02 -1.277832000000000e-01 -3.719678590000000e-01
            6.781652100000000e-02 -2.521295010000000e-02 6.690862520000000e-02 -2.772076520000000e-02 -1.270065500000000e-01 -3.728170320000000e-01 -3.756318560000000e-01 7.818225070000000e-02
            -3.758238730000000e-01 7.798769620000000e-02 -1.270179540000000e-01 -3.728339700000000e-01 6.860395730000000e-02 -2.797632600000000e-02 6.849072270000001e-02 -2.518015760000000e-02
            -1.277647170000000e-01 -3.719667470000000e-01 -3.756384090000000e-01 7.818975590000000e-02 6.849052040000000e-02 -2.516159550000000e-02 6.976886459999999e-02 -2.380964120000000e-02
336220183.0000000000 5.753809670000000e-02 -1.532106120000000e-02 5.767517450000000e-02 -1.549323970000000e-02 -3.496836860000000e-01 1.643350350000000e-01 -2.111632200000000e-01 -3.301251270000000e-01
            5.767317470000000e-02 -1.549291670000000e-02 5.670767830000000e-02 -1.820132940000000e-02 -2.106268310000000e-01 -3.311442670000000e-01 -3.494817660000000e-01 1.644807100000000e-01
            -3.496990440000000e-01 1.643446380000000e-01 -2.106275150000000e-01 -3.311443540000000e-01 5.852239360000000e-02 -1.851712460000000e-02 5.844953150000000e-02 -1.563880940000000e-02
            -2.111670540000000e-01 -3.301279380000000e-01 -3.494794490000000e-01 1.644899350000000e-01 5.847157510000000e-02 -1.562944940000000e-02 5.969428630000000e-02 -1.436778540000000e-02
336719766.0000000000 5.287992680000000e-02 -2.099742760000000e-03 5.319726550000000e-02 -2.087396780000000e-03 -3.033356950000000e-01 2.431226370000000e-01 -2.815150060000000e-01 -2.695952580000000e-01
            5.318965730000000e-02 -2.077179240000000e-03 5.204312760000000e-02 -5.006352700000000e-03 -2.812409580000000e-01 -2.707114000000000e-01 -3.030952960000000e-01 2.432375080000000e-01
            -3.033398550000000e-01 2.431402660000000e-01 -2.812479930000000e-01 -2.707187150000000e-01 5.396224220000000e-02 -5.421193170000000e-03 5.399289390000000e-02 -2.473459100000000e-03
            -2.815317970000000e-01 -2.695955300000000e-01 -3.030956550000000e-01 2.432385670000000e-01 5.398727900000000e-02 -2.473802220000000e-03 5.512752760000000e-02 -1.276349720000000e-03
337219349.0000000000 5.488248580000000e-02 1.175700200000000e-02 5.546103790000000e-02 1.189283230000000e-02 -2.387660740000000e-01 3.092058160000000e-01 -3.346708960000000e-01 -1.946385160000000e-01
            5.547367210000000e-02 1.188410920000000e-02 5.404997520000000e-02 8.845949680000000e-03 -3.346710410000000e-01 -1.957979510000000e-01 -2.384765420000000e-01 3.092437370000000e-01
            -2.387603530000000e-01 3.091996630000000e-01 -3.346660350000000e-01 -1.957984750000000e-01 5.603021920000000e-02 8.320633660000000e-03 5.616763740000000e-02 1.125810870000000e-02
            -3.346789730000000e-01 -1.946415400000000e-01 -2.384833330000000e-01 3.092320250000000e-01 5.618304710000000e-02 1.126730480000000e-02 5.719186300000000e-02 1.244127730000000e-02
337718932.0000000000 6.303657650000000e-02 2.303561760000000e-02 6.394688540000000e-02 2.315459820000000e-02 -1.596112920000000e-01 3.579194780000000e-01 -3.680400320000000e-01 -1.103783390000000e-01
            6.394630270000000e-02 2.315671330000000e-02 6.221999910000000e-02 2.012314440000000e-02 -3.683132120000000e-01 -1.115041370000000e-01 -1.593333350000000e-01 3.579076040000000e-01
            -1.595908240000000e-01 3.579403680000000e-01 -3.683165550000000e-01 -1.115049450000000e-01 6.421381919999999e-02 1.946706790000000e-02 6.450045300000000e-02 2.233485770000000e-02
            -3.680430240000000e-01 -1.103745910000000e-01 -1.593271290000000e-01 3.579049620000000e-01 6.448724740000000e-02 2.234565620000000e-02 6.537391960000000e-02 2.358745780000000e-02
338218515.0000000000 7.536237129999999e-02 2.919066910000000e-02 7.658171890000000e-02 2.919168500000000e-02 -7.091446600000000e-02 3.860329300000000e-01 -3.807185390000000e-01 -2.198949900000000e-02
            7.658410100000000e-02 2.919430820000000e-02 7.454508610000000e-02 2.630280500000000e-02 -3.812430320000000e-01 -2.302696150000000e-02 -7.064199010000000e-02 3.859459820000000e-01
            -7.090972410000000e-02 3.860283300000000e-01 -3.812308430000000e-01 -2.303286710000000e-02 7.651868260000000e-02 2.551728750000000e-02 7.689208110000000e-02 2.827333080000000e-02
            -3.807183540000000e-01 -2.200124190000000e-02 -7.064412680000000e-02 3.859364280000000e-01 7.689998960000000e-02 2.826779970000000e-02 7.766126790000000e-02 2.963130450000000e-02
338718098.0000000000 8.897590869999999e-02 2.901884990000000e-02 9.044740890000000e-02 2.876158450000000e-02 2.160825190000000e-02 3.919515610000000e-01 -3.730518670000000e-01 6.576173670000000e-02
            9.044526660000000e-02 2.875706030000000e-02 8.819558940000000e-02 2.611286360000000e-02 -3.737822280000000e-01 6.487896620000000e-02 2.183197560000000e-02 3.917991050000000e-01
            2.160145420000000e-02 3.919505660000000e-01 -3.737865550000000e-01 6.486306009999999e-02 9.009085080000000e-02 2.522144340000000e-02 9.051230439999999e-02 2.783903150000000e-02
            -3.730444600000000e-01 6.575556180000000e-02 2.184645630000000e-02 3.918096930000000e-01 9.050857020000000e-02 2.784747060000000e-02 9.122056450000000e-02 2.935458960000000e-02
339217681.0000000000 1.008916340000000e-01 2.270856350000000e-02 1.024905290000000e-01 2.211765820000000e-02 1.122948850000000e-01 3.759205520000000e-01 -3.461900760000000e-01 1.487152750000000e-01
            1.024772260000000e-01 2.213927050000000e-02 1.001066760000000e-01 1.979279530000000e-02 -3.471344510000000e-01 1.480114180000000e-01 1.124875550000000e-01 3.757231100000000e-01
            1.123030640000000e-01 3.759244040000000e-01 -3.471321880000000e-01 1.480124830000000e-01 1.019482540000000e-01 1.885073880000000e-02 1.023394110000000e-01 2.130225480000000e-02
            -3.462130440000000e-01 1.487131800000000e-01 1.124929400000000e-01 3.757147290000000e-01 1.023319780000000e-01 2.130954610000000e-02 1.030573240000000e-01 2.298497880000000e-02
339717264.0000000000 1.085830270000000e-01 1.179739160000000e-02 1.101795900000000e-01 1.090867320000000e-02 1.961684630000000e-01 3.395415040000000e-01 -3.018444680000000e-01 2.232347440000000e-01
            1.101553980000000e-01 1.089414840000000e-02 1.078147760000000e-01 8.881978620000000e-03 -3.029167430000000e-01 2.227657180000000e-01 1.963202940000000e-01 3.392985190000000e-01
            1.961785570000000e-01 3.395468790000000e-01 -3.029053510000000e-01 2.227537610000000e-01 1.095825350000000e-01 7.893451560000000e-03 1.098625120000000e-01 1.022434670000000e-02
            -3.018335830000000e-01 2.232376840000000e-01 1.963151670000000e-01 3.392938400000000e-01 1.098546930000000e-01 1.022659050000000e-02 1.106601540000000e-01 1.205467300000000e-02
340216847.0000000000 1.105266610000000e-01 -1.363687140000000e-03 1.119677180000000e-01 -2.545514700000000e-03 2.691206850000000e-01 2.853475150000000e-01 -2.420082600000000e-01 2.859802410000000e-01
            1.119499350000000e-01 -2.551417250000000e-03 1.097481180000000e-01 -4.276839420000000e-03 -2.431585220000000e-01 2.857739350000000e-01 2.692141830000000e-01 2.850835950000000e-01
            2.691054140000000e-01 2.853579580000000e-01 -2.431566550000000e-01 2.857741400000000e-01 1.114478520000000e-01 -5.265363990000000e-03 1.115953050000000e-01 -3.015721610000000e-03
            -2.420079170000000e-01 2.859907020000000e-01 2.691837000000000e-01 2.850902160000000e-01 1.115863700000000e-01 -3.010165850000000e-03 1.125375570000000e-01 -1.099416460000000e-03
340716430.0000000000 1.063091610000000e-01 -1.398399660000000e-02 1.075195220000000e-01 -1.532947090000000e-02 3.278804920000000e-01 2.164080700000000e-01 -1.692787720000000e-01 3.338015620000000e-01
            1.075200570000000e-01 -1.532650140000000e-02 1.055307170000000e-01 -1.690546580000000e-02 -1.704480040000000e-01 3.338526900000000e-01 3.279088890000000e-01 2.161353140000000e-01
            3.278739580000000e-01 2.164140140000000e-01 -1.704521750000000e-01 3.338575670000000e-01 1.072104970000000e-01 -1.786236590000000e-02 1.071888460000000e-01 -1.560534860000000e-02
            -1.692806040000000e-01 3.337988650000000e-01 3.278988420000000e-01 2.161270190000000e-01 1.071782610000000e-01 -1.560968760000000e-02 1.082812000000000e-01 -1.367347330000000e-02
341216013.0000000000 9.681436770000000e-02 -2.337532850000000e-02 9.775895690000000e-02 -2.478564780000000e-02 3.698933570000000e-01 1.359879590000000e-01 -8.701078910000000e-02 3.637895600000000e-01
            9.775012980000000e-02 -2.477893460000000e-02 9.603962190000000e-02 -2.631666090000000e-02 -8.814926770000001e-02 3.641296760000000e-01 3.698475030000000e-01 1.357067520000000e-01
            3.698878600000000e-01 1.359900940000000e-01 -8.814157580000000e-02 3.641191890000000e-01 9.771963480000000e-02 -2.721637870000000e-02 9.755318750000000e-02 -2.488299930000000e-02
            -8.700993890000000e-02 3.637857250000000e-01 3.698358980000000e-01 1.356967760000000e-01 9.755184850000000e-02 -2.489010990000000e-02 9.877200429999999e-02 -2.301594540000000e-02
341715596.0000000000 8.396101070000000e-02 -2.746730660000000e-02 8.468686180000000e-02 -2.878922190000000e-02 3.930578140000000e-01 4.765880480000000e-02 5.620754180000001e-04 3.736761970000000e-01
            8.466451379999999e-02 -2.878270070000000e-02 8.318637680000000e-02 -3.039407680000000e-02 -4.646018990000000e-04 3.742642350000000e-01 3.929428370000000e-01 4.739682010000000e-02
            3.930747940000000e-01 4.766359160000000e-02 -4.634470490000000e-04 3.742685800000000e-01 8.490303690000001e-02 -3.126805740000000e-02 8.467176580000001e-02 -2.881285970000000e-02
            5.723596360000000e-04 3.736890350000000e-01 3.929459290000000e-01 4.737559000000000e-02 8.466000570000000e-02 -2.881122110000000e-02 8.599163320000000e-02 -2.706747930000000e-02
342215179.0000000000 7.053829480000000e-02 -2.521849200000000e-02 7.108768190000000e-02 -2.633594020000000e-02 3.957147950000000e-01 -4.457541510000000e-02 8.832301970000001e-02 3.623149230000000e-01
            7.109722609999999e-02 -2.634432770000000e-02 6.976653060000000e-02 -2.815238040000000e-02 8.746532429999999e-02 3.631384500000000e-01 3.955449960000000e-01 -4.481668340000000e-02
            3.957121200000000e-01 -4.457410780000000e-02 8.746378900000000e-02 3.631427920000000e-01 7.156468530000000e-02 -2.899886220000000e-02 7.131795650000000e-02 -2.640538260000000e-02
            8.831316920000000e-02 3.623163220000000e-01 3.955400810000000e-01 -4.480232210000000e-02 7.131646010000001e-02 -2.639394020000000e-02 7.263954100000000e-02 -2.480548830000000e-02
342714762.0000000000 5.954575040000000e-02 -1.693830630000000e-02 6.008583940000000e-02 -1.783290080000000e-02 3.768509010000000e-01 -1.360925650000000e-01 1.707474450000000e-01 3.299988440000000e-01
            6.008386060000000e-02 -1.783717570000000e-02 5.877649750000000e-02 -1.986181390000000e-02 1.700952530000000e-01 3.310117080000000e-01 3.766191480000000e-01 -1.363034650000000e-01
            3.768561470000000e-01 -1.361154980000000e-01 1.700705330000000e-01 3.310243340000000e-01 6.068651540000000e-02 -2.076327610000000e-02 6.052411490000000e-02 -1.802823850000000e-02
            1.707283370000000e-01 3.300102140000000e-01 3.766325100000000e-01 -1.363048780000000e-01 6.053286250000000e-02 -1.802284030000000e-02 6.176184980000000e-02 -1.657889970000000e-02
343214345.0000000000 5.360063090000000e-02 -4.451962970000000e-03 5.426742800000000e-02 -5.092665010000000e-03 3.365103410000000e-01 -2.217380400000000e-01 2.424657760000000e-01 2.788622280000000e-01
            5.425184620000000e-02 -5.099047180000000e-03 5.282392600000000e-02 -7.372404630000000e-03 2.420611990000000e-01 2.799969310000000e-01 3.362358020000000e-01 -2.218717490000000e-01
            3.365072820000000e-01 -2.217505830000000e-01 2.420655900000000e-01 2.799885300000000e-01 5.486719830000000e-02 -8.345487570000001e-03 5.486620160000000e-02 -5.553310380000000e-03
            2.424528910000000e-01 2.788617900000000e-01 3.362307180000000e-01 -2.218767260000000e-01 5.483936890000000e-02 -5.549772350000000e-03 5.594354940000000e-02 -4.171249920000000e-03
343713928.0000000000 5.414644790000000e-02 9.395970579999999e-03 5.501687740000000e-02 8.917945240000001e-03 2.762165240000000e-01 -2.960050210000000e-01 2.990977790000000e-01 2.125558240000000e-01
            5.499878120000000e-02 8.912360280000000e-03 5.336924750000000e-02 6.479706420000000e-03 2.989832890000000e-01 2.137445470000000e-01 2.759217150000000e-01 -2.960800060000000e-01
            2.762353510000000e-01 -2.959952010000000e-01 2.989827290000000e-01 2.137412990000000e-01 5.551252200000000e-02 5.356968870000000e-03 5.568289840000000e-02 8.180606920000000e-03
            2.990881300000000e-01 2.125558550000000e-01 2.759355590000000e-01 -2.960702980000000e-01 5.566711750000000e-02 8.174206110000000e-03 5.658463260000000e-02 9.537997320000000e-03
344213511.0000000000 6.099639790000000e-02 2.138504770000000e-02 6.218784390000000e-02 2.096645830000000e-02 1.993045090000000e-01 -3.538463390000000e-01 3.377509520000000e-01 1.357276890000000e-01
            6.218188220000000e-02 2.095669250000000e-02 6.025036550000000e-02 1.849722610000000e-02 3.379340830000000e-01 1.368957350000000e-01 1.990160410000000e-01 -3.538505270000000e-01
            1.993201540000000e-01 -3.538563010000000e-01 3.379239430000000e-01 1.369072050000000e-01 6.244348830000000e-02 1.714203700000000e-02 6.278253289999999e-02 1.986223020000000e-02
            3.377393560000000e-01 1.357289210000000e-01 1.989905580000000e-01 -3.538323650000000e-01 6.277796430000000e-02 1.986042770000000e-02 6.351266650000000e-02 2.131626180000000e-02
344713094.0000000000 7.254478890000000e-02 2.881593120000000e-02 7.402352900000000e-02 2.829034230000000e-02 1.105710020000000e-01 -3.913884750000000e-01 3.571126840000000e-01 5.331138470000000e-02
            7.403385040000000e-02 2.829716140000000e-02 7.179537680000000e-02 2.590758380000000e-02 3.575526960000000e-01 5.441901590000000e-02 1.102505840000000e-01 -3.913125280000000e-01
            1.105639350000000e-01 -3.913958230000000e-01 3.575398550000000e-01 5.443146730000000e-02 7.400022689999999e-02 2.431785050000000e-02 7.444436070000000e-02 2.685098440000000e-02
            3.571251750000000e-01 5.331716860000000e-02 1.102589600000000e-01 -3.913274090000000e-01 7.442494210000000e-02 2.685953580000000e-02 7.506035660000000e-02 2.847362010000000e-02
345212677.0000000000 8.604870720000000e-02 3.011171500000000e-02 8.781822530000000e-02 2.937151070000000e-02 1.566463520000000e-02 -4.064784740000000e-01 3.571714440000000e-01 -3.009613790000000e-02
            8.782238430000000e-02 2.936126430000000e-02 8.530729350000001e-02 2.722363630000000e-02 3.578590170000000e-01 -2.913608900000000e-02 1.539024890000000e-02 -4.063148120000000e-01
            1.568443670000000e-02 -4.064564530000000e-01 3.578523590000000e-01 -2.912225990000000e-02 8.745510010000000e-02 2.534458970000000e-02 8.791221710000000e-02 2.767336260000000e-02
            3.571729280000000e-01 -3.011536770000000e-02 1.539331200000000e-02 -4.063147720000000e-01 8.789549650000000e-02 2.765717500000000e-02 8.847193450000000e-02 2.949226140000000e-02
345712260.0000000000 9.852033150000000e-02 2.521059230000000e-02 1.004632700000000e-01 2.412947660000000e-02 -7.950017800000000e-02 -3.986521560000000e-01 3.387496490000000e-01 -1.104887940000000e-01
            1.004529800000000e-01 2.412161110000000e-02 9.779834570000000e-02 2.230146510000000e-02 3.396272720000000e-01 -1.096953160000000e-01 -7.972727890000000e-02 -3.984398050000000e-01
            -7.947741300000000e-02 -3.986417080000000e-01 3.396421990000000e-01 -1.097004090000000e-01 9.978015590000000e-02 2.014859610000000e-02 1.001722480000000e-01 2.226655650000000e-02
            3.387658490000000e-01 -1.105036790000000e-01 -7.972092520000000e-02 -3.984415440000000e-01 1.001724400000000e-01 2.225103030000000e-02 1.007798210000000e-01 2.431482830000000e-02
346211843.0000000000 1.073338050000000e-01 1.530091200000000e-02 1.093031020000000e-01 1.384098650000000e-02 -1.695723100000000e-01 -3.691224670000000e-01 3.032050570000000e-01 -1.843362370000000e-01
            1.093064370000000e-01 1.385256540000000e-02 1.066387370000000e-01 1.239386050000000e-02 3.042360720000000e-01 -1.837585330000000e-01 -1.697655640000000e-01 -3.688656460000000e-01
            -1.695604830000000e-01 -3.691298420000000e-01 3.042289990000000e-01 -1.837485690000000e-01 1.083684180000000e-01 9.998613150000000e-03 1.085790530000000e-01 1.193087240000000e-02
            3.031948570000000e-01 -1.843337810000000e-01 -1.697538580000000e-01 -3.688618310000000e-01 1.085850020000000e-01 1.192234180000000e-02 1.093683540000000e-01 1.418128350000000e-02
346711426.0000000000 1.107562820000000e-01 2.610641140000000e-03 1.126110520000000e-01 7.962169570000000e-04 -2.500347720000000e-01 -3.201257210000000e-01 2.521973020000000e-01 -2.483421370000000e-01
            1.126152590000000e-01 7.915599510000001e-04 1.100642020000000e-01 -3.105861920000000e-04 2.533398860000000e-01 -2.480112230000000e-01 -2.501384980000000e-01 -3.198282520000000e-01
            -2.500265630000000e-01 -3.201212900000000e-01 2.533360530000000e-01 -2.480083420000000e-01 1.114632680000000e-01 -2.911460510000000e-03 1.114393280000000e-01 -1.097549830000000e-03
            2.522047800000000e-01 -2.483395200000000e-01 -2.501456450000000e-01 -3.198220900000000e-01 1.114337460000000e-01 -1.079688800000000e-03 1.124439600000000e-01 1.274719670000000e-03
347211009.0000000000 1.081172830000000e-01 -1.019847520000000e-02 1.097238370000000e-01 -1.230457590000000e-02 -3.171395720000000e-01 -2.545080220000000e-01 1.878922660000000e-01 -2.994295540000000e-01
            1.097395360000000e-01 -1.230083990000000e-02 1.074232970000000e-01 -1.315912680000000e-02 1.890848060000000e-01 -2.993744760000000e-01 -3.171945770000000e-01 -2.542011780000000e-01
            -3.171573660000000e-01 -2.545105270000000e-01 1.890858400000000e-01 -2.993750490000000e-01 1.084256830000000e-01 -1.587367320000000e-02 1.081365300000000e-01 -1.404053380000000e-02
            1.878830170000000e-01 -2.994110480000000e-01 -3.172038800000000e-01 -2.541828570000000e-01 1.081273070000000e-01 -1.402940790000000e-02 1.093894320000000e-01 -1.166073530000000e-02
347710592.0000000000 1.000010320000000e-01 -2.045875300000000e-02 1.012814810000000e-01 -2.271965800000000e-02 -3.679885590000000e-01 -1.755256100000000e-01 1.131264300000000e-01 -3.346011340000000e-01
            1.012748390000000e-01 -2.270559360000000e-02 9.931111530000000e-02 -2.341689440000000e-02 1.143077290000000e-01 -3.348218370000000e-01 -3.679678560000000e-01 -1.751980970000000e-01
            -3.679895290000000e-01 -1.755335240000000e-01 1.143031070000000e-01 -3.348363250000000e-01 9.985239640000000e-02 -2.614383300000000e-02 9.929890769999999e-02 -2.418464360000000e-02
            1.131377380000000e-01 -3.346051920000000e-01 -3.679693720000000e-01 -1.752241720000000e-01 9.929602450000000e-02 -2.418081620000000e-02 1.008445600000000e-01 -2.193891680000000e-02
348210175.0000000000 8.808458669999999e-02 -2.593649190000000e-02 8.902895130000001e-02 -2.821223570000000e-02 -4.000787370000000e-01 -8.672876010000000e-02 3.166647940000000e-02 -3.514188800000000e-01
            8.902552380000001e-02 -2.820290300000000e-02 8.738248100000000e-02 -2.889695960000000e-02 3.277149160000000e-02 -3.519358850000000e-01 -3.999816490000000e-01 -8.640502080000000e-02
            -4.000838450000000e-01 -8.673281130000000e-02 3.277281370000000e-02 -3.519369600000000e-01 8.745371880000000e-02 -3.149669800000000e-02 8.672566540000000e-02 -2.932600350000000e-02
            3.168650340000000e-02 -3.514260330000000e-01 -3.999898220000000e-01 -8.641138360000000e-02 8.673275940000000e-02 -2.932042470000000e-02 8.844271030000000e-02 -2.728136360000000e-02
348709758.0000000000 7.492469570000000e-02 -2.534731900000000e-02 7.558276100000000e-02 -2.749249320000000e-02 -4.114426850000000e-01 7.887775309999999e-03 -5.183548830000000e-02 -3.482948740000000e-01
            7.558336890000000e-02 -2.747834960000000e-02 7.421143710000000e-02 -2.830270190000000e-02 -5.086823480000000e-02 -3.490402880000000e-01 -4.112790750000000e-01 8.167858980000000e-03
            -4.114502520000000e-01 7.886258930000001e-03 -5.087040520000000e-02 -3.490571760000000e-01 7.383557120000001e-02 -3.064127610000000e-02 7.303139720000000e-02 -2.820398110000000e-02
            -5.181876370000000e-02 -3.482968730000000e-01 -4.112675620000000e-01 8.170502970000000e-03 7.303165239999999e-02 -2.820037800000000e-02 7.483717820000001e-02 -2.643133410000000e-02
349209341.0000000000 6.347270110000000e-02 -1.869524670000000e-02 6.394114469999999e-02 -2.061145820000000e-02 -4.006653300000000e-01 1.037245960000000e-01 -1.321518920000000e-01 -3.250077850000000e-01
            6.394306010000000e-02 -2.061435450000000e-02 6.277444320000000e-02 -2.165416440000000e-02 -1.313936310000000e-01 -3.259476460000000e-01 -4.004453320000000e-01 1.039687460000000e-01
            -4.006676820000000e-01 1.037168980000000e-01 -1.314024830000000e-01 -3.259655360000000e-01 6.199364120000000e-02 -2.360042180000000e-02 6.126007970000000e-02 -2.088253940000000e-02
            -1.321469830000000e-01 -3.249948790000000e-01 -4.004489460000000e-01 1.039676060000000e-01 6.126148050000000e-02 -2.088099770000000e-02 6.299088810000000e-02 -1.940214190000000e-02
349708924.0000000000 5.641851150000000e-02 -7.462010440000000e-03 5.684987530000000e-02 -9.086429470000001e-03 -3.673723960000000e-01 1.954766420000000e-01 -2.040637640000000e-01 -2.829959470000000e-01
            5.684064560000000e-02 -9.088202190000000e-03 5.571452480000000e-02 -1.040898940000000e-02 -2.035526200000000e-01 -2.841118100000000e-01 -3.670891740000000e-01 1.956515860000000e-01
            -3.673682850000000e-01 1.954748770000000e-01 -2.035701710000000e-01 -2.841021370000000e-01 5.468236010000000e-02 -1.185891170000000e-02 5.409390860000000e-02 -8.898101960000000e-03
            -2.040648240000000e-01 -2.829911180000000e-01 -3.670900960000000e-01 1.956649590000000e-01 5.410088440000000e-02 -8.905562980000000e-03 5.568262010000000e-02 -7.646323970000000e-03
350208507.0000000000 5.547047470000000e-02 5.788340320000000e-03 5.596329880000000e-02 4.404763540000000e-03 -3.126084020000000e-01 2.775035490000000e-01 -2.630467970000000e-01 -2.253502620000000e-01
            5.596029150000000e-02 4.410925890000000e-03 5.475598000000000e-02 2.837858430000000e-03 -2.628160030000000e-01 -2.265486270000000e-01 -3.123023450000000e-01 2.776093860000000e-01
            -3.126283970000000e-01 2.774982440000000e-01 -2.628241830000000e-01 -2.265478690000000e-01 5.362508340000000e-02 1.962465270000000e-03 5.328034330000000e-02 5.043552410000000e-03
            -2.630440600000000e-01 -2.253484040000000e-01 -3.123061210000000e-01 2.776010390000000e-01 5.328319970000000e-02 5.046305520000000e-03 5.460727780000000e-02 6.168925180000000e-03
350708090.0000000000 6.079243990000000e-02 1.787182040000000e-02 6.153289390000000e-02 1.665496950000000e-02 -2.392359900000000e-01 3.443603050000000e-01 -3.059054500000000e-01 -1.562383550000000e-01
            6.152635010000000e-02 1.666385950000000e-02 6.010276310000000e-02 1.494965750000000e-02 -3.059633340000000e-01 -1.574442450000000e-01 -2.389057130000000e-01 3.443799850000000e-01
            -2.392492080000000e-01 3.443502520000000e-01 -3.059595710000000e-01 -1.574378190000000e-01 5.901544070000000e-02 1.466386600000000e-02 5.895004470000000e-02 1.775027530000000e-02
            -3.059018620000000e-01 -1.562311170000000e-01 -2.388912370000000e-01 3.443833290000000e-01 5.894864720000000e-02 1.776101930000000e-02 5.999070480000000e-02 1.885621490000000e-02
351207673.0000000000 7.109497889999999e-02 2.600785180000000e-02 7.210485630000001e-02 2.483619850000000e-02 -1.517208220000000e-01 3.915714010000000e-01 -3.309562120000000e-01 -8.024878950000000e-02
            7.209743439999999e-02 2.484647130000000e-02 7.039725860000000e-02 2.306714350000000e-02 -3.312812060000000e-01 -8.141136370000000e-02 -1.513723760000000e-01 3.915209830000000e-01
            -1.517177240000000e-01 3.915653260000000e-01 -3.312968160000000e-01 -8.142707790000001e-02 6.958246749999999e-02 2.334990520000000e-02 6.973516080000000e-02 2.632370330000000e-02
            -3.309476570000000e-01 -8.025406130000000e-02 -1.513921110000000e-01 3.915110440000000e-01 6.974998830000000e-02 2.630836680000000e-02 7.053734709999999e-02 2.753820330000000e-02
351707256.0000000000 8.387731040000000e-02 2.838606180000000e-02 8.517356530000000e-02 2.713608720000000e-02 -5.564231520000000e-02 4.163182520000000e-01 -3.378218840000000e-01 -1.810707480000000e-03
            8.518195970000000e-02 2.712247240000000e-02 8.321560770000000e-02 2.547439800000000e-02 -3.384332660000000e-01 -2.860030000000000e-03 -5.533728750000000e-02 4.161636840000000e-01
            -5.565023900000000e-02 4.162997140000000e-01 -3.384299720000000e-01 -2.859950400000000e-03 8.275770440000001e-02 2.621423850000000e-02 8.308291930000000e-02 2.894503040000000e-02
            -3.378179850000000e-01 -1.801571270000000e-03 -5.532708050000000e-02 4.161726810000000e-01 8.308169130000000e-02 2.895446000000000e-02 8.370300080000000e-02 3.037534620000000e-02
352206839.0000000000 9.621153920000000e-02 2.465561170000000e-02 9.775046570000000e-02 2.316349470000000e-02 4.299243910000000e-02 4.175515870000000e-01 -3.270883550000000e-01 7.521641780000000e-02
            9.774561919999999e-02 2.316436700000000e-02 9.556898649999999e-02 2.173662740000000e-02 -3.279012320000000e-01 7.432322470000000e-02 4.328632180000000e-02 4.173371120000000e-01
            4.298673020000000e-02 4.175591880000000e-01 -3.279008640000000e-01 7.431938539999999e-02 9.561158160000000e-02 2.280775240000000e-02 9.596232470000000e-02 2.528896810000000e-02
            -3.270860650000000e-01 7.521143800000001e-02 4.328607990000000e-02 4.173346050000000e-01 9.595537849999999e-02 2.525872310000000e-02 9.652136700000000e-02 2.698147310000000e-02
352706422.0000000000 1.054130690000000e-01 1.576085470000000e-02 1.070605050000000e-01 1.392416150000000e-02 1.385493330000000e-01 3.958786190000000e-01 -2.997306570000000e-01 1.473476310000000e-01
            1.070732980000000e-01 1.391533270000000e-02 1.047592690000000e-01 1.282763910000000e-02 -3.007392690000000e-01 1.466708600000000e-01 1.387954910000000e-01 3.956231360000000e-01
            1.385605050000000e-01 3.958819300000000e-01 -3.007427530000000e-01 1.466806230000000e-01 1.054156520000000e-01 1.404939050000000e-02 1.056281760000000e-01 1.628535330000000e-02
            -2.997478270000000e-01 1.473239850000000e-01 1.388022490000000e-01 3.956067230000000e-01 1.056301760000000e-01 1.627212940000000e-02 1.063178880000000e-01 1.825661570000000e-02
353206005.0000000000 1.095397260000000e-01 3.692321700000000e-03 1.111852380000000e-01 1.480712050000000e-03 2.260607190000000e-01 3.531535830000000e-01 -2.571778520000000e-01 2.114881650000000e-01
            1.111878670000000e-01 1.472467560000000e-03 1.089023000000000e-01 7.531612640000001e-04 -2.582953820000000e-01 2.110693830000000e-01 2.262390520000000e-01 3.528496810000000e-01
            2.260594770000000e-01 3.531611710000000e-01 -2.583061110000000e-01 2.110686370000000e-01 1.101477470000000e-01 1.979156750000000e-03 1.101342370000000e-01 4.015874430000000e-03
            -2.571636710000000e-01 2.114892140000000e-01 2.262323610000000e-01 3.528361330000000e-01 1.101289150000000e-01 3.997615690000000e-03 1.110211360000000e-01 6.175116690000000e-03
353705588.0000000000 1.077461850000000e-01 -8.949068450000000e-03 1.092544220000000e-01 -1.153130400000000e-02 3.013816170000000e-01 2.920455210000000e-01 -2.011471000000000e-01 2.646056580000000e-01
            1.092645630000000e-01 -1.154414760000000e-02 1.071120710000000e-01 -1.189678180000000e-02 -2.023517820000000e-01 2.644475370000000e-01 3.014756170000000e-01 2.916923900000000e-01
            3.013789470000000e-01 2.920426610000000e-01 -2.023567140000000e-01 2.644496560000000e-01 1.089583110000000e-01 -1.084836050000000e-02 1.085955490000000e-01 -8.903670000000001e-03
            -2.011508610000000e-01 2.646076180000000e-01 3.014774340000000e-01 2.916794250000000e-01 1.085954640000000e-01 -8.889284410000000e-03 1.098173070000000e-01 -6.640701650000000e-03
354205171.0000000000 1.003832410000000e-01 -1.945956030000000e-02 1.016145250000000e-01 -2.238688940000000e-02 3.611223600000000e-01 2.156021140000000e-01 -1.340922720000000e-01 3.037246980000000e-01
            1.016126560000000e-01 -2.236389730000000e-02 9.975608100000000e-02 -2.244246180000000e-02 -1.353052360000000e-01 3.038511260000000e-01 3.611249200000000e-01 2.152323070000000e-01
            3.611187860000000e-01 2.156038150000000e-01 -1.353016250000000e-01 3.038480450000000e-01 1.020833240000000e-01 -2.174459260000000e-02 1.013830180000000e-01 -1.967244670000000e-02
            -1.340915570000000e-01 3.037213710000000e-01 3.611306160000000e-01 2.152481010000000e-01 1.013726340000000e-01 -1.966854400000000e-02 1.029712550000000e-01 -1.749306130000000e-02
354704754.0000000000 8.893367990000001e-02 -2.554839610000000e-02 8.978187140000000e-02 -2.865847280000000e-02 4.024350140000000e-01 1.273701420000000e-01 -5.926437570000000e-02 3.262490290000000e-01
            8.978852290000000e-02 -2.865785940000000e-02 8.830429390000000e-02 -2.853308130000000e-02 -6.041643590000000e-02 3.266670680000000e-01 4.023502750000000e-01 1.270118630000000e-01
            4.024297160000000e-01 1.273552300000000e-01 -6.042874580000000e-02 3.266555360000000e-01 9.100054470000001e-02 -2.832375950000000e-02 8.997508320000000e-02 -2.599411300000000e-02
            -5.925336490000000e-02 3.262604020000000e-01 4.023474130000000e-01 1.270168780000000e-01 8.997492520000000e-02 -2.599483170000000e-02 9.188558170000000e-02 -2.407403680000000e-02
355204337.0000000000 7.580107310000000e-02 -2.574554820000000e-02 7.623972470000000e-02 -2.891434370000000e-02 4.229411720000000e-01 3.128706040000000e-02 1.916232480000000e-02 3.302786250000000e-01
            7.624075840000000e-02 -2.891246750000000e-02 7.515592650000000e-02 -2.873381380000000e-02 1.812818150000000e-02 3.309462280000000e-01 4.227860950000000e-01 3.096442550000000e-02
            4.229283050000000e-01 3.128551060000000e-02 1.811660310000000e-02 3.309589050000000e-01 7.808914850000000e-02 -2.908149010000000e-02 7.685191540000000e-02 -2.635303270000000e-02
            1.915562560000000e-02 3.302805400000000e-01 4.227878840000000e-01 3.095519420000000e-02 7.685064279999999e-02 -2.636231880000000e-02 7.897652450000001e-02 -2.483808380000000e-02
355703920.0000000000 6.390803780000000e-02 -1.979188100000000e-02 6.394236270000000e-02 -2.289384230000000e-02 4.208548500000000e-01 -6.800174420000001e-02 9.631670290000000e-02 3.151716920000000e-01
            6.394220710000000e-02 -2.290010650000000e-02 6.326120430000000e-02 -2.276619950000000e-02 9.545558580000001e-02 3.160681600000000e-01 4.206308010000000e-01 -6.828681759999999e-02
            4.208636850000000e-01 -6.799249220000000e-02 9.547752980000000e-02 3.160591580000000e-01 6.622352210000000e-02 -2.375085230000000e-02 6.493457150000000e-02 -2.053647790000000e-02
            9.631253820000001e-02 3.151601290000000e-01 4.206242110000000e-01 -6.829241810000000e-02 6.494699170000000e-02 -2.052526730000000e-02 6.712628860000000e-02 -1.950993250000000e-02
356203503.0000000000 5.601448670000000e-02 -8.879907530000000e-03 5.571023180000000e-02 -1.182939280000000e-02 3.953664390000000e-01 -1.651644710000000e-01 1.671446990000000e-01 2.817942730000000e-01
            5.571999400000000e-02 -1.182655510000000e-02 5.536068890000000e-02 -1.184173350000000e-02 1.665447370000000e-01 2.828534770000000e-01 3.950690210000000e-01 -1.653774350000000e-01
            3.953702110000000e-01 -1.651543920000000e-01 1.665283950000000e-01 2.828597510000000e-01 5.818435440000000e-02 -1.343863480000000e-02 5.704720090000000e-02 -9.720423350000000e-03
            1.671357340000000e-01 2.818000460000000e-01 3.950784940000000e-01 -1.653915450000000e-01 5.704367670000000e-02 -9.729939490000001e-03 5.907906850000000e-02 -9.220156360000000e-03
356703086.0000000000 5.406130480000000e-02 4.550442530000000e-03 5.349209240000000e-02 1.810314760000000e-03 3.470541980000000e-01 -2.543638700000000e-01 2.271093050000000e-01 2.326583770000000e-01
            5.350214180000000e-02 1.818275240000000e-03 5.340770660000000e-02 1.595119150000000e-03 2.267736140000000e-01 2.338408190000000e-01 3.467230300000000e-01 -2.545224920000000e-01
            3.470563950000000e-01 -2.543649290000000e-01 2.267670150000000e-01 2.338441200000000e-01 5.591363640000000e-02 -5.565283450000000e-04 5.511133250000000e-02 3.614697110000000e-03
            2.271088760000000e-01 2.326550390000000e-01 3.467168470000000e-01 -2.545143730000000e-01 5.510981240000000e-02 3.612003990000000e-03 5.681248640000000e-02 3.659732940000000e-03
357202669.0000000000 5.855438900000000e-02 1.737290460000000e-02 5.782482030000000e-02 1.488946400000000e-02 2.782886500000000e-01 -3.298079710000000e-01 2.728551360000000e-01 1.714569930000000e-01
            5.782960030000000e-02 1.489345320000000e-02 5.791129010000000e-02 1.443189080000000e-02 2.727997020000000e-01 1.726679160000000e-01 2.779096040000000e-01 -3.298905940000000e-01
            2.782972600000000e-01 -3.298215170000000e-01 2.728081090000000e-01 1.726696710000000e-01 5.996686670000000e-02 1.184812500000000e-02 5.964383430000000e-02 1.636140740000000e-02
            2.728440110000000e-01 1.714520740000000e-01 2.779011860000000e-01 -3.298743610000000e-01 5.965511300000000e-02 1.636811950000000e-02 6.085768560000000e-02 1.604647550000000e-02
357702252.0000000000 6.846120529999999e-02 2.667411670000000e-02 6.760282510000000e-02 2.443709160000000e-02 1.931582410000000e-01 -3.865518440000000e-01 3.023925550000000e-01 1.023952740000000e-01
            6.761031880000000e-02 2.442844070000000e-02 6.783996360000000e-02 2.374384400000000e-02 3.026306400000000e-01 1.035928930000000e-01 1.927761500000000e-01 -3.865095360000000e-01
            1.931466510000000e-01 -3.865617530000000e-01 3.026324800000000e-01 1.035918300000000e-01 6.929516519999999e-02 2.086803880000000e-02 6.957304060000000e-02 2.553711050000000e-02
            3.023940770000000e-01 1.024004460000000e-01 1.927724110000000e-01 -3.865388020000000e-01 6.956887620000000e-02 2.554233790000000e-02 7.016328660000000e-02 2.505337620000000e-02
358201835.0000000000 8.142727510000000e-02 3.040338880000000e-02 8.053090420000000e-02 2.836392840000000e-02 9.711852790000000e-02 -4.211004000000000e-01 3.150952280000000e-01 2.968574490000000e-02
            8.053460190000000e-02 2.835322890000000e-02 8.081679240000000e-02 2.745253280000000e-02 3.155988160000000e-01 3.078650030000000e-02 9.672584440000000e-02 -4.209861820000000e-01
            9.710902060000000e-02 -4.211006880000000e-01 3.156161980000000e-01 3.077480230000000e-02 8.166580800000001e-02 2.448863100000000e-02 8.256836190000000e-02 2.913658790000000e-02
            3.150919960000000e-01 2.968614480000000e-02 9.674422410000000e-02 -4.209958630000000e-01 8.255086600000000e-02 2.912647230000000e-02 8.252239109999999e-02 2.867156790000000e-02
358701418.0000000000 9.458192640000000e-02 2.786274150000000e-02 9.362866089999999e-02 2.601068170000000e-02 -3.863851530000000e-03 -4.318043050000000e-01 3.112241510000000e-01 -4.301464260000000e-02
            9.363485560000000e-02 2.600515290000000e-02 9.398772610000000e-02 2.492877420000000e-02 3.119697670000000e-01 -4.205660510000000e-02 -4.188434140000000e-03 -4.316200870000000e-01
            -3.875470650000000e-03 -4.317875930000000e-01 3.119611180000000e-01 -4.205436530000000e-02 9.422649449999999e-02 2.198755470000000e-02 9.571063980000000e-02 2.639709990000000e-02
            3.112276790000000e-01 -4.300694060000000e-02 -4.210403930000000e-03 -4.316041020000000e-01 9.569527690000000e-02 2.641176460000000e-02 9.504964790000001e-02 2.618379310000000e-02
359201001.0000000000 1.051085770000000e-01 1.976052770000000e-02 1.040720600000000e-01 1.807180740000000e-02 -1.038574120000000e-01 -4.186915890000000e-01 2.915500850000000e-01 -1.124190100000000e-01
            1.040858650000000e-01 1.807343000000000e-02 1.045279260000000e-01 1.681543780000000e-02 2.924834190000000e-01 -1.116538180000000e-01 -1.041442830000000e-01 -4.184317490000000e-01
            -1.038514900000000e-01 -4.187077960000000e-01 2.924902740000000e-01 -1.116473810000000e-01 1.041646550000000e-01 1.408802670000000e-02 1.061478880000000e-01 1.810075390000000e-02
            2.915679460000000e-01 -1.124111460000000e-01 -1.041291170000000e-01 -4.184318260000000e-01 1.061361360000000e-01 1.811766470000000e-02 1.049979210000000e-01 1.829851460000000e-02
359700584.0000000000 1.108507050000000e-01 7.906325800000001e-03 1.097740340000000e-01 6.388045950000000e-03 -1.975808530000000e-01 -3.832434500000000e-01 2.571401540000000e-01 -1.755603070000000e-01
            1.097771870000000e-01 6.367819750000000e-03 1.102879450000000e-01 4.929621960000000e-03 2.582175510000000e-01 -1.750241280000000e-01 -1.977737480000000e-01 -3.829019640000000e-01
            -1.975829920000000e-01 -3.832102780000000e-01 2.582186190000000e-01 -1.750299590000000e-01 1.094429890000000e-01 2.547070910000000e-03 1.117602130000000e-01 6.082974100000000e-03
            2.571366260000000e-01 -1.755585950000000e-01 -1.977986300000000e-01 -3.828971780000000e-01 1.117590730000000e-01 6.080781290000000e-03 1.102292280000000e-01 6.762688720000000e-03
360200167.0000000000 1.107300020000000e-01 -5.210570600000000e-03 1.095347270000000e-01 -6.516060740000000e-03 -2.804840520000000e-01 -3.277162490000000e-01 2.093868960000000e-01 -2.295525380000000e-01
            1.095385230000000e-01 -6.513052680000000e-03 1.101667700000000e-01 -8.177716190000000e-03 2.105674470000000e-01 -2.292810050000000e-01 -2.806131620000000e-01 -3.273411880000000e-01
            -2.804644420000000e-01 -3.277161560000000e-01 2.105833470000000e-01 -2.292774610000000e-01 1.089214430000000e-01 -1.014279780000000e-02 1.114069950000000e-01 -7.159127210000000e-03
            2.093935050000000e-01 -2.295414200000000e-01 -2.805927690000000e-01 -3.273431550000000e-01 1.114204040000000e-01 -7.161458980000000e-03 1.096894490000000e-01 -5.895404940000000e-03
360699750.0000000000 1.047768230000000e-01 -1.687709400000000e-02 1.035094010000000e-01 -1.788612690000000e-02 -3.487888170000000e-01 -2.550841970000000e-01 1.502790680000000e-01 -2.714938620000000e-01
            1.035252200000000e-01 -1.789445610000000e-02 1.042059640000000e-01 -1.986181620000000e-02 1.514887630000000e-01 -2.715027720000000e-01 -3.488213740000000e-01 -2.546892420000000e-01
            -3.487631450000000e-01 -2.550806010000000e-01 1.514857170000000e-01 -2.715161770000000e-01 1.026813170000000e-01 -2.129404380000000e-02 1.051892730000000e-01 -1.886770740000000e-02
            1.502701370000000e-01 -2.714934740000000e-01 -3.488258340000000e-01 -2.546796390000000e-01 1.052138170000000e-01 -1.886150600000000e-02 1.034739070000000e-01 -1.705686200000000e-02
361199333.0000000000 9.422159300000001e-02 -2.462714660000000e-02 9.294406140000000e-02 -2.527853120000000e-02 -3.992617130000000e-01 -1.687125290000000e-01 8.253411510000000e-02 -2.987178230000000e-01
            9.294850490000001e-02 -2.528886390000000e-02 9.364111009999999e-02 -2.762417430000000e-02 8.371523960000000e-02 -2.990061110000000e-01 -3.992158950000000e-01 -1.683203080000000e-01
            -3.992706640000000e-01 -1.687119870000000e-01 8.372681470000000e-02 -2.990171070000000e-01 9.196179110000000e-02 -2.851120070000000e-02 9.438117629999999e-02 -2.657400120000000e-02
            8.254067150000000e-02 -2.986961010000000e-01 -3.992214530000000e-01 -1.683270380000000e-01 9.437401270000000e-02 -2.656097970000000e-02 9.275529540000001e-02 -2.426389480000000e-02
361698916.0000000000 8.125373869999999e-02 -2.675686250000000e-02 8.005548220000000e-02 -2.702645290000000e-02 -4.292289260000000e-01 -7.247924420000000e-02 9.861701250000000e-03 -3.090512300000000e-01
            8.004334859999999e-02 -2.701518940000000e-02 8.069150250000000e-02 -2.974965480000000e-02 1.094808510000000e-02 -3.096148530000000e-01 -4.290899810000000e-01 -7.210454960000000e-02
            -4.292225270000000e-01 -7.248388829999999e-02 1.095290490000000e-02 -3.096252010000000e-01 7.898718790000001e-02 -3.009270390000000e-02 8.119115450000000e-02 -2.854613110000000e-02
            9.874860330000000e-03 -3.090413900000000e-01 -4.290736140000000e-01 -7.209268730000000e-02 8.115948589999999e-02 -2.854333880000000e-02 7.978588130000000e-02 -2.581924090000000e-02
362198499.0000000000 6.873205880000000e-02 -2.269951840000000e-02 6.773520410000000e-02 -2.254779460000000e-02 -4.364576900000000e-01 2.906108260000000e-02 -6.328058210000000e-02 -3.014226480000000e-01
            6.774280169999999e-02 -2.254723050000000e-02 6.814734320000000e-02 -2.568865060000000e-02 -6.235183610000000e-02 -3.022350100000000e-01 -4.362272270000000e-01 2.941399570000000e-02
            -4.364707120000000e-01 2.906527750000000e-02 -6.235808230000000e-02 -3.022346540000000e-01 6.654261400000000e-02 -2.547934500000000e-02 6.846949530000000e-02 -2.425987630000000e-02
            -6.327373540000000e-02 -3.014137100000000e-01 -4.362268920000000e-01 2.939481270000000e-02 6.848162660000000e-02 -2.426884670000000e-02 6.733506400000000e-02 -2.121913460000000e-02
362698082.0000000000 5.948145970000000e-02 -1.328481340000000e-02 5.884158310000000e-02 -1.274397920000000e-02 -4.196834700000000e-01 1.306205580000000e-01 -1.320925940000000e-01 -2.761917080000000e-01
            5.883801950000000e-02 -1.273133920000000e-02 5.889184700000000e-02 -1.627173790000000e-02 -1.313869270000000e-01 -2.771923090000000e-01 -4.193858220000000e-01 1.308948240000000e-01
            -4.196686630000000e-01 1.306272700000000e-01 -1.313976070000000e-01 -2.771965950000000e-01 5.749861430000000e-02 -1.555403200000000e-02 5.917738210000000e-02 -1.455944390000000e-02
            -1.320937110000000e-01 -2.762049020000000e-01 -4.193724940000000e-01 1.308952200000000e-01 5.917287300000000e-02 -1.456008950000000e-02 5.830543460000000e-02 -1.130214330000000e-02
363197665.0000000000 5.568743360000000e-02 -6.646284050000000e-04 5.553970430000000e-02 1.875250750000000e-04 -3.789289760000000e-01 2.262358840000000e-01 -1.920506350000000e-01 -2.352787480000000e-01
            5.552964480000000e-02 1.869636100000000e-04 5.511844910000000e-02 -3.641232010000000e-03 -1.916229500000000e-01 -2.364436190000000e-01 -3.785712250000000e-01 2.264420560000000e-01
            -3.789376330000000e-01 2.262239950000000e-01 -1.916242900000000e-01 -2.364229970000000e-01 5.402976600000000e-02 -2.479108040000000e-03 5.546493750000000e-02 -1.649260270000000e-03
            -1.920609800000000e-01 -2.352841600000000e-01 -3.785640470000000e-01 2.264312700000000e-01 5.546357010000000e-02 -1.650030170000000e-03 5.484866640000000e-02 1.754590690000000e-03
363697248.0000000000 5.823647970000000e-02 1.221644610000000e-02 5.869523070000000e-02 1.320601310000000e-02 -3.160190140000000e-01 3.098392110000000e-01 -2.396739180000000e-01 -1.819096270000000e-01
            5.868895140000000e-02 1.323327180000000e-02 5.766101350000000e-02 9.272948910000000e-03 -2.394960540000000e-01 -1.831056190000000e-01 -3.156434360000000e-01 3.099617590000000e-01
            -3.160505090000000e-01 3.098289280000000e-01 -2.394935710000000e-01 -1.830980850000000e-01 5.702287880000000e-02 1.073792690000000e-02 5.819617710000000e-02 1.145653810000000e-02
            -2.396636230000000e-01 -1.818875490000000e-01 -3.156125960000000e-01 3.099481550000000e-01 5.818374670000000e-02 1.147430760000000e-02 5.782197950000000e-02 1.498273660000000e-02
364196831.0000000000 6.647449040000000e-02 2.235110470000000e-02 6.756565410000000e-02 2.329162230000000e-02 -2.346429980000000e-01 3.759869900000000e-01 -2.726723870000000e-01 -1.199133430000000e-01
            6.756201280000000e-02 2.330108190000000e-02 6.590467570000000e-02 1.939814290000000e-02 -2.728014990000000e-01 -1.211262380000000e-01 -2.342061660000000e-01 3.760108220000000e-01
            -2.346407230000000e-01 3.760019750000000e-01 -2.728006090000000e-01 -1.211220930000000e-01 6.573370750000000e-02 2.110216520000000e-02 6.669386469999999e-02 2.169968740000000e-02
            -2.726801840000000e-01 -1.199034560000000e-01 -2.342195490000000e-01 3.759984130000000e-01 6.669811210000000e-02 2.172331200000000e-02 6.651905780000000e-02 2.531382760000000e-02
364696414.0000000000 7.835009010000001e-02 2.746131600000000e-02 8.007658580000000e-02 2.813187570000000e-02 -1.398814040000000e-01 4.205720210000000e-01 -2.901999260000000e-01 -5.323183640000000e-02
            8.008500510000000e-02 2.814375860000000e-02 7.778645440000000e-02 2.450531900000000e-02 -2.906024550000000e-01 -5.438459840000000e-02 -1.394680250000000e-01 4.204822760000000e-01
            -1.398794180000000e-01 4.205784390000000e-01 -2.906043930000000e-01 -5.436453550000000e-02 7.815102430000000e-02 2.630568360000000e-02 7.889118480000000e-02 2.679240770000000e-02
            -2.902051700000000e-01 -5.323530790000000e-02 -1.394731240000000e-01 4.204871080000000e-01 7.888855359999999e-02 2.680520990000000e-02 7.889954470000000e-02 3.050761010000000e-02
365195997.0000000000 9.112780099999999e-02 2.651486650000000e-02 9.337184960000000e-02 2.673968750000000e-02 -3.777654650000000e-02 4.412507250000000e-01 -2.922634850000000e-01 1.458709940000000e-02
            9.336985470000000e-02 2.672903870000000e-02 9.061109019999999e-02 2.357115210000000e-02 -2.929148760000000e-01 1.355413800000000e-02 -3.739185840000000e-02 4.410591200000000e-01
            -3.775766800000000e-02 4.412419240000000e-01 -2.929286150000000e-01 1.356266320000000e-02 9.145435730000000e-02 2.529655740000000e-02 9.192773970000000e-02 2.568676130000000e-02
            -2.922728210000000e-01 1.458371850000000e-02 -3.738045910000000e-02 4.410589440000000e-01 9.194411600000001e-02 2.568631080000000e-02 9.217486190000000e-02 2.950308470000000e-02
365695580.0000000000 1.019869570000000e-01 1.988477560000000e-02 1.045770500000000e-01 1.948983760000000e-02 6.567361319999999e-02 4.374371710000000e-01 -2.794483770000000e-01 8.045857260000000e-02
            1.045793330000000e-01 1.949196530000000e-02 1.014668650000000e-01 1.693408400000000e-02 -2.803062570000000e-01 7.962027710000000e-02 6.601140720000000e-02 4.371839810000000e-01
            6.567551180000000e-02 4.374520530000000e-01 -2.803032430000000e-01 7.962429280000000e-02 1.027564980000000e-01 1.848230410000000e-02 1.029623700000000e-01 1.879072300000000e-02
            -2.794376570000000e-01 8.046880610000000e-02 6.599894990000001e-02 4.371934760000000e-01 1.029501220000000e-01 1.879777990000000e-02 1.034787240000000e-01 2.269822890000000e-02
366195163.0000000000 1.086137330000000e-01 9.144678430000001e-03 1.113683590000000e-01 8.047770140000000e-03 1.647863670000000e-01 4.101211410000000e-01 -2.525644030000000e-01 1.416254050000000e-01
            1.113658470000000e-01 8.056097250000000e-03 1.081144490000000e-01 6.165413410000000e-03 -2.536059160000000e-01 1.410232550000000e-01 1.650574430000000e-01 4.097820310000000e-01
            1.647760920000000e-01 4.101058110000000e-01 -2.536031550000000e-01 1.410200110000000e-01 1.097796480000000e-01 7.430446580000000e-03 1.096464270000000e-01 7.674917180000000e-03
            -2.525648960000000e-01 1.416415830000000e-01 1.650578450000000e-01 4.097740080000000e-01 1.096482090000000e-01 7.684293210000000e-03 1.104658650000000e-01 1.167365490000000e-02
366694746.0000000000 1.097144640000000e-01 -3.419966430000000e-03 1.123550730000000e-01 -5.209852260000000e-03 2.547012040000000e-01 3.612435990000000e-01 -2.127121600000000e-01 1.953746970000000e-01
            1.123532840000000e-01 -5.205151400000000e-03 1.092133790000000e-01 -6.411359880000000e-03 -2.138668670000000e-01 1.950092110000000e-01 2.548843320000000e-01 3.608707680000000e-01
            2.547073190000000e-01 3.612691860000000e-01 -2.138733790000000e-01 1.950264130000000e-01 1.111289980000000e-01 -5.515597450000000e-03 1.106371060000000e-01 -5.252094740000000e-03
            -2.127098770000000e-01 1.953908160000000e-01 2.548860280000000e-01 3.608696570000000e-01 1.106281890000000e-01 -5.257684640000000e-03 1.118189260000000e-01 -1.268280790000000e-03
367194329.0000000000 1.050516070000000e-01 -1.516100210000000e-02 1.073906350000000e-01 -1.754813070000000e-02 3.312284830000000e-01 2.935552530000000e-01 -1.614455390000000e-01 2.389694150000000e-01
            1.073872360000000e-01 -1.755424940000000e-02 1.045534620000000e-01 -1.814784570000000e-02 -1.626607170000000e-01 2.388683890000000e-01 3.313081590000000e-01 2.931256220000000e-01
            3.312315410000000e-01 2.935670250000000e-01 -1.626554420000000e-01 2.388736460000000e-01 1.065841960000000e-01 -1.768139350000000e-02 1.056952970000000e-01 -1.729914670000000e-02
            -1.614555940000000e-01 2.389589020000000e-01 3.312911750000000e-01 2.931380450000000e-01 1.057045400000000e-01 -1.730149340000000e-02 1.072715430000000e-01 -1.341202650000000e-02
367693912.0000000000 9.558014010000000e-02 -2.356735700000000e-02 9.743587280000000e-02 -2.643050220000000e-02 3.907910400000000e-01 2.102407240000000e-01 -1.010607770000000e-01 2.696771730000000e-01
            9.744115300000000e-02 -2.643781550000000e-02 9.507834290000000e-02 -2.657335330000000e-02 -1.022503940000000e-01 2.698629540000000e-01 3.907788780000000e-01 2.097991130000000e-01
            3.907840890000000e-01 2.102470530000000e-01 -1.022441230000000e-01 2.698634730000000e-01 9.708136810000000e-02 -2.654115110000000e-02 9.581416780000000e-02 -2.593999330000000e-02
            -1.010454960000000e-01 2.696739530000000e-01 3.907847560000000e-01 2.098074910000000e-01 9.581481380000000e-02 -2.592186790000000e-02 9.775037910000001e-02 -2.225306210000000e-02
368193495.0000000000 8.323838020000000e-02 -2.682061590000000e-02 8.454031740000000e-02 -2.993523870000000e-02 4.303257290000000e-01 1.150438830000000e-01 -3.464632970000000e-02 2.852577440000000e-01
            8.453973330000000e-02 -2.993446270000000e-02 8.272847730000001e-02 -2.983376370000000e-02 -3.577084570000000e-02 2.857191010000000e-01 4.302118650000000e-01 1.146284470000000e-01
            4.303237520000000e-01 1.150619170000000e-01 -3.577717770000000e-02 2.857295150000000e-01 8.457254660000001e-02 -3.017281310000000e-02 8.298322520000000e-02 -2.921712920000000e-02
            -3.464645610000000e-02 2.852565210000000e-01 4.301931840000000e-01 1.146231530000000e-01 8.298326450000000e-02 -2.921240500000000e-02 8.528048850000000e-02 -2.589845050000000e-02
368693078.0000000000 7.069521600000001e-02 -2.406493660000000e-02 7.141384369999999e-02 -2.725213690000000e-02 4.472755890000000e-01 1.242101480000000e-02 3.373723440000000e-02 2.842672620000000e-01
            7.139968419999999e-02 -2.724370010000000e-02 7.019013870000000e-02 -2.706365600000000e-02 3.276790190000000e-02 2.849778530000000e-01 4.470618570000000e-01 1.204260300000000e-02
            4.472692380000000e-01 1.242483360000000e-02 3.276701180000000e-02 2.849770440000000e-01 7.176127740000000e-02 -2.773857910000000e-02 6.994902860000000e-02 -2.633098990000000e-02
            3.374260770000000e-02 2.842664990000000e-01 4.470513230000000e-01 1.203673140000000e-02 6.993712290000000e-02 -2.632258270000000e-02 7.246975059999999e-02 -2.345128840000000e-02
369192661.0000000000 6.078112600000000e-02 -1.582914880000000e-02 6.096682410000000e-02 -1.889915940000000e-02 4.398858950000000e-01 -9.241776680000000e-02 9.964581810000001e-02 2.665401600000000e-01
            6.095812560000000e-02 -1.888175690000000e-02 6.026347860000000e-02 -1.881695330000000e-02 9.887530550000000e-02 2.674770370000000e-01 4.395859070000000e-01 -9.275410080000000e-02
            4.398837830000000e-01 -9.242094460000000e-02 9.888701360000000e-02 2.674840770000000e-01 6.146872450000000e-02 -1.963943430000000e-02 5.958063930000000e-02 -1.774017580000000e-02
            9.964239690000000e-02 2.665400460000000e-01 4.395907510000000e-01 -9.274257140000000e-02 5.957370170000000e-02 -1.774590280000000e-02 6.218153280000000e-02 -1.536823120000000e-02
369692244.0000000000 5.583305220000000e-02 -3.910313840000000e-03 5.559664070000000e-02 -6.716266140000000e-03 4.076808530000000e-01 -1.935431170000000e-01 1.586638700000000e-01 2.334777430000000e-01
            5.559442530000000e-02 -6.709792920000000e-03 5.529797550000000e-02 -6.882029060000000e-03 1.581216590000000e-01 2.345595800000000e-01 4.073214590000000e-01 -1.937865070000000e-01
            4.076883980000000e-01 -1.935329590000000e-01 1.581242070000000e-01 2.345657800000000e-01 5.610205230000000e-02 -7.748678270000000e-03 5.429078680000000e-02 -5.354939650000000e-03
            1.586500730000000e-01 2.334818640000000e-01 4.073075650000000e-01 -1.937938570000000e-01 5.430038910000000e-02 -5.345121730000000e-03 5.681741990000000e-02 -3.497680640000000e-03
370191827.0000000000 5.697617850000000e-02 8.924826290000000e-03 5.649784260000000e-02 6.438834360000000e-03 3.518776190000000e-01 -2.846659310000000e-01 2.071587420000000e-01 1.877211550000000e-01
            5.649647740000000e-02 6.432419570000000e-03 5.648177380000000e-02 5.942793480000000e-03 2.068804640000000e-01 1.888809480000000e-01 3.514669690000000e-01 -2.848189900000000e-01
            3.518753330000000e-01 -2.846632940000000e-01 2.068890680000000e-01 1.888814510000000e-01 5.687346230000000e-02 5.197517010000000e-03 5.530979400000000e-02 8.046999440000001e-03
            2.071365940000000e-01 1.877143670000000e-01 3.514652420000000e-01 -2.848160060000000e-01 5.531210040000000e-02 8.051850189999999e-03 5.757058050000000e-02 9.435335160000001e-03
370691410.0000000000 6.394672680000001e-02 1.963178830000000e-02 6.333944790000000e-02 1.749425170000000e-02 2.755636200000000e-01 -3.599343390000000e-01 2.426758880000000e-01 1.327450790000000e-01
            6.335376430000000e-02 1.749678530000000e-02 6.344747200000000e-02 1.666406900000000e-02 2.427069280000000e-01 1.339251720000000e-01 2.751213940000000e-01 -3.599942640000000e-01
            2.755714150000000e-01 -3.599308170000000e-01 2.426755800000000e-01 1.339365450000000e-01 6.353064030000000e-02 1.617683850000000e-02 6.233967830000000e-02 1.936194850000000e-02
            2.426693290000000e-01 1.327389650000000e-01 2.751194280000000e-01 -3.599898820000000e-01 6.232043440000000e-02 1.937285460000000e-02 6.421959350000001e-02 2.041516370000000e-02
371190992.0000000000 7.496974050000001e-02 2.582651680000000e-02 7.441995949999999e-02 2.394320580000000e-02 1.834982420000000e-01 -4.146452420000000e-01 2.640475820000000e-01 7.223346790000000e-02
            7.441232050000000e-02 2.393746530000000e-02 7.448719510000000e-02 2.284935510000000e-02 2.643385220000000e-01 7.338818470000000e-02 1.830360890000000e-01 -4.146180850000000e-01
            1.835008660000000e-01 -4.146542090000000e-01 2.643545910000000e-01 7.338739190000000e-02 7.436443900000000e-02 2.271750990000000e-02 7.362944389999999e-02 2.609549590000000e-02
            2.640276330000000e-01 7.222595240000000e-02 1.830370550000000e-01 -4.146011050000000e-01 7.363049680000000e-02 2.608616390000000e-02 7.505206630000000e-02 2.693631060000000e-02
371690575.0000000000 8.747895650000000e-02 2.615771990000000e-02 8.700364419999999e-02 2.448119140000000e-02 8.147670840000000e-02 -4.457649630000000e-01 2.710837530000000e-01 9.546095260000000e-03
            8.700217230000000e-02 2.447445150000000e-02 8.701261970000000e-02 2.318817060000000e-02 2.716289020000000e-01 1.059546800000000e-02 8.104234600000000e-02 -4.456155080000000e-01
            8.146509250000000e-02 -4.457735180000000e-01 2.716291050000000e-01 1.060166350000000e-02 8.682003650000000e-02 2.347072060000000e-02 8.656306380000001e-02 2.687619670000000e-02
            2.710798620000000e-01 9.557866380000000e-03 8.102223810000000e-02 -4.456109320000000e-01 8.654402350000000e-02 2.686898980000000e-02 8.746556229999999e-02 2.769856560000000e-02
372190158.0000000000 9.861082020000000e-02 2.077006340000000e-02 9.826834190000000e-02 1.914751610000000e-02 -2.437890600000000e-02 -4.520370090000000e-01 2.641424020000000e-01 -5.231963340000000e-02
            9.823759740000000e-02 1.914145460000000e-02 9.817456730000000e-02 1.779237540000000e-02 2.649186680000000e-01 -5.143419750000000e-02 -2.476309800000000e-02 -4.517702800000000e-01
            -2.437955920000000e-02 -4.520409870000000e-01 2.649250990000000e-01 -5.144855880000000e-02 9.803631110000000e-02 1.848454510000000e-02 9.821356069999999e-02 2.173242330000000e-02
            2.641533320000000e-01 -5.232925220000000e-02 -2.477128570000000e-02 -4.517735550000000e-01 9.821197280000001e-02 2.172835760000000e-02 9.866325850000000e-02 2.271932130000000e-02
372689741.0000000000 1.059938090000000e-01 1.095315220000000e-02 1.057009670000000e-01 9.282407660000000e-03 -1.281646640000000e-01 -4.337938530000000e-01 2.438796400000000e-01 -1.107982910000000e-01
            1.057011160000000e-01 9.295295880000000e-03 1.055635100000000e-01 7.983102779999999e-03 2.448476660000000e-01 -1.101213600000000e-01 -1.284837870000000e-01 -4.334349010000000e-01
            -1.281623190000000e-01 -4.337811990000000e-01 2.448432750000000e-01 -1.101103470000000e-01 1.056336400000000e-01 9.019743049999999e-03 1.061542090000000e-01 1.197423600000000e-02
            2.438946030000000e-01 -1.107834470000000e-01 -1.284830120000000e-01 -4.334410740000000e-01 1.061447740000000e-01 1.195917160000000e-02 1.062215190000000e-01 1.326688630000000e-02
373189324.0000000000 1.081085630000000e-01 -1.099549010000000e-03 1.077748470000000e-01 -2.852672930000000e-03 -2.246224500000000e-01 -3.925782780000000e-01 2.111795410000000e-01 -1.633201690000000e-01
            1.077707080000000e-01 -2.850228440000000e-03 1.076721440000000e-01 -4.088460250000000e-03 2.122633930000000e-01 -1.628839160000000e-01 -2.248439220000000e-01 -3.921762730000000e-01
            -2.246150340000000e-01 -3.925628450000000e-01 2.122644350000000e-01 -1.628824390000000e-01 1.080180520000000e-01 -2.758475650000000e-03 1.087438940000000e-01 -2.067765430000000e-04
            2.111767440000000e-01 -1.633101650000000e-01 -2.248388810000000e-01 -3.921592050000000e-01 1.087341130000000e-01 -2.061054800000000e-04 1.086314610000000e-01 1.501852350000000e-03
373688907.0000000000 1.044758010000000e-01 -1.281062120000000e-02 1.040403470000000e-01 -1.468435820000000e-02 -3.091360770000000e-01 -3.307890730000000e-01 1.672407080000000e-01 -2.073042540000000e-01
            1.040396540000000e-01 -1.468029870000000e-02 1.040676670000000e-01 -1.579595240000000e-02 1.684054570000000e-01 -2.071187690000000e-01 -3.092699360000000e-01 -3.303300220000000e-01
            -3.091461750000000e-01 -3.307859210000000e-01 1.684238710000000e-01 -2.071074240000000e-01 1.047953240000000e-01 -1.430975000000000e-02 1.055200830000000e-01 -1.218847280000000e-02
            1.672488100000000e-01 -2.073050080000000e-01 -3.092756480000000e-01 -3.303304000000000e-01 1.055198330000000e-01 -1.218300220000000e-02 1.053964170000000e-01 -1.003433370000000e-02
374188490.0000000000 9.589819460000000e-02 -2.164447790000000e-02 9.519160190000001e-02 -2.357343920000000e-02 -3.777486370000000e-01 -2.514443640000000e-01 1.139866160000000e-01 -2.401284930000000e-01
            9.520458090000000e-02 -2.357429870000000e-02 9.545703179999999e-02 -2.466160480000000e-02 1.151610320000000e-01 -2.402223730000000e-01 -3.777891060000000e-01 -2.509665420000000e-01
            -3.777512080000000e-01 -2.514376350000000e-01 1.151595520000000e-01 -2.402184510000000e-01 9.658933670000000e-02 -2.312588700000000e-02 9.718692780000000e-02 -2.139630480000000e-02
            1.139776460000000e-01 -2.401197660000000e-01 -3.777774690000000e-01 -2.509566660000000e-01 9.718313219999999e-02 -2.138448780000000e-02 9.719049339999999e-02 -1.881804980000000e-02
374688073.0000000000 8.409987300000001e-02 -2.561629490000000e-02 8.307224870000000e-02 -2.750751060000000e-02 -4.269447920000000e-01 -1.581387750000000e-01 5.408533610000000e-02 -2.594847430000000e-01
            8.308986540000000e-02 -2.752682430000000e-02 8.366225989999999e-02 -2.864423880000000e-02 5.520799760000000e-02 -2.598543150000000e-01 -4.268754000000000e-01 -1.576722960000000e-01
            -4.269589510000000e-01 -1.581326090000000e-01 5.520130520000000e-02 -2.598496710000000e-01 8.517282340000000e-02 -2.719404080000000e-02 8.547518599999999e-02 -2.576972280000000e-02
            5.407232250000000e-02 -2.594987970000000e-01 -4.268899870000000e-01 -1.576695200000000e-01 8.547182260000000e-02 -2.576059610000000e-02 8.579428810000000e-02 -2.289775940000000e-02
375187656.0000000000 7.166273569999999e-02 -2.371801480000000e-02 7.029881659999999e-02 -2.544853510000000e-02 -4.537767720000000e-01 -5.522792510000000e-02 -8.898362780000000e-03 -2.637338180000000e-01
            7.029571770000000e-02 -2.545354430000000e-02 7.123101749999999e-02 -2.672757280000000e-02 -7.894465320000000e-03 -2.643532660000000e-01 -4.535866300000000e-01 -5.479661220000000e-02
            -4.537778720000000e-01 -5.521679040000000e-02 -7.886349189999999e-03 -2.643667560000000e-01 7.304978480000000e-02 -2.548447890000000e-02 7.295956870000000e-02 -2.422005000000000e-02
            -8.908242420000000e-03 -2.637338710000000e-01 -4.535896480000000e-01 -5.479028880000000e-02 7.296254269999999e-02 -2.422335590000000e-02 7.367171690000000e-02 -2.118839690000000e-02
375687239.0000000000 6.138892210000000e-02 -1.618369020000000e-02 5.971637390000000e-02 -1.762686000000000e-02 -4.560400470000000e-01 5.209794780000000e-02 -7.082641810000000e-02 -2.524019650000000e-01
            5.972168750000000e-02 -1.761760280000000e-02 6.094264070000000e-02 -1.920657540000000e-02 -6.999256660000000e-02 -2.532466570000000e-01 -4.557561600000000e-01 5.249709540000000e-02
            -4.560483720000000e-01 5.211556320000000e-02 -7.000589790000000e-02 -2.532476720000000e-01 6.302834290000001e-02 -1.823912000000000e-02 6.249689590000000e-02 -1.697416250000000e-02
            -7.080879380000001e-02 -2.524148700000000e-01 -4.557408840000000e-01 5.250527780000000e-02 6.249134010000000e-02 -1.696842940000000e-02 6.365221430000000e-02 -1.395100070000000e-02
376186822.0000000000 5.573812970000000e-02 -4.668967040000000e-03 5.382827190000000e-02 -5.674128880000000e-03 -4.327602650000000e-01 1.579042420000000e-01 -1.275099680000000e-01 -2.264076500000000e-01
            5.383501860000000e-02 -5.687348260000000e-03 5.529403390000000e-02 -7.657531780000000e-03 -1.269131220000000e-01 -2.274209500000000e-01 -4.323581590000000e-01 1.582042190000000e-01
            -4.327410760000000e-01 1.578943750000000e-01 -1.269085320000000e-01 -2.274131250000000e-01 5.749742780000000e-02 -7.033544660000000e-03 5.655220260000000e-02 -5.597433600000000e-03
            -1.275143880000000e-01 -2.264172780000000e-01 -4.323779700000000e-01 1.582044750000000e-01 5.656455470000000e-02 -5.597629380000000e-03 5.813735030000000e-02 -2.728785560000000e-03
376686405.0000000000 5.613203170000000e-02 8.226138880000001e-03 5.409200270000000e-02 7.706785920000000e-03 -3.845851830000000e-01 2.557006100000000e-01 -1.753984460000000e-01 -1.879691820000000e-01
            5.410266210000000e-02 7.702676400000000e-03 5.568948200000000e-02 5.241691290000000e-03 -1.750497180000000e-01 -1.890684470000000e-01 -3.841492780000000e-01 2.559209240000000e-01
            -3.845831530000000e-01 2.557021840000000e-01 -1.750576390000000e-01 -1.890794170000000e-01 5.788569410000000e-02 5.558551960000000e-03 5.661370560000000e-02 7.307021100000000e-03
            -1.754038080000000e-01 -1.879660770000000e-01 -3.841477330000000e-01 2.559189480000000e-01 5.660719090000000e-02 7.294544530000000e-03 5.849698890000000e-02 9.813807930000000e-03
377185988.0000000000 6.246189830000000e-02 1.947561200000000e-02 6.045619710000000e-02 1.947363560000000e-02 -3.141583220000000e-01 3.393184590000000e-01 -2.119687560000000e-01 -1.401496310000000e-01
            6.044896590000000e-02 1.948373460000000e-02 6.204866890000000e-02 1.649709200000000e-02 -2.119049510000000e-01 -1.413056630000000e-01 -3.136687070000000e-01 3.394181710000000e-01
            -3.141544120000000e-01 3.393255600000000e-01 -2.119090780000000e-01 -1.413060700000000e-01 6.412858270000001e-02 1.654383250000000e-02 6.264589810000000e-02 1.871685760000000e-02
            -2.119852400000000e-01 -1.401465850000000e-01 -3.136760820000000e-01 3.394299620000000e-01 6.263890930000000e-02 1.871336680000000e-02 6.471834379999999e-02 2.079624140000000e-02
377685571.0000000000 7.329252460000001e-02 2.650044900000000e-02 7.141631790000000e-02 2.700290570000000e-02 -2.258066080000000e-01 4.035460130000000e-01 -2.359420150000000e-01 -8.633272070000000e-02
            7.141157240000000e-02 2.700216110000000e-02 7.287456880000000e-02 2.351370540000000e-02 -2.361326150000000e-01 -8.745287870000000e-02 -2.253230400000000e-01 4.035242670000000e-01
            -2.258071980000000e-01 4.035438650000000e-01 -2.361351100000000e-01 -8.746459819999999e-02 7.477134710000000e-02 2.336129090000000e-02 7.322056010000000e-02 2.604073920000000e-02
            -2.359529310000000e-01 -8.632826030000000e-02 -2.253070580000000e-01 4.035354320000000e-01 7.323606530000000e-02 2.603748030000000e-02 7.535927460000000e-02 2.759890830000000e-02
378185154.0000000000 8.605026260000000e-02 2.775508270000000e-02 8.444708020000000e-02 2.872475670000000e-02 -1.251596920000000e-01 4.447261390000000e-01 -2.469477250000000e-01 -2.958775060000000e-02
            8.446085550000000e-02 2.871868350000000e-02 8.565551370000000e-02 2.478742160000000e-02 -2.473719480000000e-01 -3.064670750000000e-02 -1.246518600000000e-01 4.446132790000000e-01
            -1.251526940000000e-01 4.447380620000000e-01 -2.473777070000000e-01 -3.064360330000000e-02 8.734956739999999e-02 2.451699380000000e-02 8.590885830000000e-02 2.770135300000000e-02
            -2.469339500000000e-01 -2.958955780000000e-02 -1.246631360000000e-01 4.446008180000000e-01 8.588803720000000e-02 2.769976050000000e-02 8.791447780000000e-02 2.876042060000000e-02
378684737.0000000000 9.792437770000000e-02 2.308533510000000e-02 9.668235550000000e-02 2.441177650000000e-02 -1.829405120000000e-02 4.610268290000000e-01 -2.451719730000000e-01 2.734740560000000e-02
            9.666652000000001e-02 2.441351180000000e-02 9.755449610000000e-02 2.010561020000000e-02 -2.458434620000000e-01 2.642586360000000e-02 -1.785275280000000e-02 4.607976470000000e-01
            -1.830270260000000e-02 4.610355440000000e-01 -2.458379920000000e-01 2.642124600000000e-02 9.902621550000000e-02 1.982470360000000e-02 9.784272010000000e-02 2.348803000000000e-02
            -2.451664130000000e-01 2.733815220000000e-02 -1.785422070000000e-02 4.607921490000000e-01 9.783856930000000e-02 2.348417930000000e-02 9.956909000000000e-02 2.408471610000000e-02
379184320.0000000000 1.063975220000000e-01 1.359637110000000e-02 1.055319390000000e-01 1.520762160000000e-02 8.873259390000000e-02 4.522438880000000e-01 -2.310877250000000e-01 8.211593250000000e-02
            1.055531090000000e-01 1.520028650000000e-02 1.060311330000000e-01 1.061286300000000e-02 -2.319498160000000e-01 8.137837780000000e-02 8.911751200000000e-02 4.519185160000000e-01
            8.873662500000000e-02 4.522453920000000e-01 -2.319537800000000e-01 8.136368469999999e-02 1.073370110000000e-01 1.039933320000000e-02 1.065520600000000e-01 1.444134670000000e-02
            -2.311017900000000e-01 8.212353579999999e-02 8.911460110000000e-02 4.519254210000000e-01 1.065587370000000e-01 1.441855740000000e-02 1.078372810000000e-01 1.466452010000000e-02
379683903.0000000000 1.097448670000000e-01 1.338917530000000e-03 1.092700820000000e-01 3.110834780000000e-03 1.904134150000000e-01 4.194682310000000e-01 -2.053350920000000e-01 1.324172660000000e-01
            1.092612640000000e-01 3.105759160000000e-03 1.093803860000000e-01 -1.671635060000000e-03 -2.063362130000000e-01 1.318819770000000e-01 1.907130240000000e-01 4.190617560000000e-01
            1.904090030000000e-01 4.194762470000000e-01 -2.063536160000000e-01 1.318830370000000e-01 1.105531660000000e-01 -1.760928850000000e-03 1.102593230000000e-01 2.543774360000000e-03
            -2.053208550000000e-01 1.324087310000000e-01 1.907166070000000e-01 4.190715600000000e-01 1.102609890000000e-01 2.536488730000000e-03 1.110490860000000e-01 2.516838650000000e-03
380183486.0000000000 1.072580570000000e-01 -1.117825450000000e-02 1.071591850000000e-01 -9.282975759999999e-03 2.818785130000000e-01 3.647476160000000e-01 -1.687570930000000e-01 1.758603420000000e-01
            1.071539640000000e-01 -9.277511780000001e-03 1.068897830000000e-01 -1.418156550000000e-02 -1.698714430000000e-01 1.755824640000000e-01 2.820606730000000e-01 3.642841180000000e-01
            2.818741380000000e-01 3.647453950000000e-01 -1.698647520000000e-01 1.755945100000000e-01 1.080132630000000e-01 -1.410619580000000e-02 1.082661390000000e-01 -9.701821910000000e-03
            -1.687719740000000e-01 1.758453140000000e-01 2.820809890000000e-01 3.642733860000000e-01 1.082776280000000e-01 -9.695910040000000e-03 1.084907730000000e-01 -9.813420830000001e-03
380683069.0000000000 9.942316460000000e-02 -2.133903400000000e-02 9.967598870000000e-02 -1.935578170000000e-02 3.587916950000000e-01 2.907864980000000e-01 -1.228217210000000e-01 2.099532610000000e-01
            9.965709930000000e-02 -1.934008120000000e-02 9.904647760000000e-02 -2.435716830000000e-02 -1.239694520000000e-01 2.099402080000000e-01 3.588835960000000e-01 2.902734490000000e-01
            3.587953840000000e-01 2.907779680000000e-01 -1.239689110000000e-01 2.099529220000000e-01 1.001874810000000e-01 -2.407779930000000e-02 1.010347310000000e-01 -1.970972680000000e-02
            -1.228262660000000e-01 2.099644020000000e-01 3.588812010000000e-01 2.902792070000000e-01 1.010153740000000e-01 -1.970388970000000e-02 1.006769190000000e-01 -1.979167060000000e-02
381182652.0000000000 8.776804140000000e-02 -2.697158400000000e-02 8.838621650000000e-02 -2.489808260000000e-02 4.173607050000000e-01 2.009550000000000e-01 -6.973327550000000e-02 2.323725120000000e-01
            8.838131000000000e-02 -2.489621530000000e-02 8.739335880000000e-02 -2.999519710000000e-02 -7.083863410000001e-02 2.326186070000000e-01 4.173253130000000e-01 2.004497140000000e-01
            4.173618320000000e-01 2.009565330000000e-01 -7.084058660000001e-02 2.326304650000000e-01 8.863988959999999e-02 -2.956655150000000e-02 9.003897760000000e-02 -2.536708710000000e-02
            -6.973317440000000e-02 2.323837510000000e-01 4.173084850000000e-01 2.004479200000000e-01 9.005031099999999e-02 -2.535912940000000e-02 8.915218599999999e-02 -2.526020740000000e-02
381682235.0000000000 7.473311790000001e-02 -2.676711300000000e-02 7.571961140000000e-02 -2.465030790000000e-02 4.542078680000000e-01 9.937060500000000e-02 -1.254020340000000e-02 2.412305310000000e-01
            7.572665180000000e-02 -2.464842640000000e-02 7.434991060000000e-02 -2.980009670000000e-02 -1.358003930000000e-02 2.417562340000000e-01 4.540473160000000e-01 9.890104990000000e-02
            4.542124780000000e-01 9.939837780000001e-02 -1.357269720000000e-02 2.417434780000000e-01 7.577162770000000e-02 -2.926052400000000e-02 7.768548640000000e-02 -2.537057940000000e-02
            -1.254742240000000e-02 2.412419080000000e-01 4.540494820000000e-01 9.890772730000000e-02 7.769253320000000e-02 -2.536885350000000e-02 7.629141950000000e-02 -2.493376850000000e-02
382181818.0000000000 6.313001970000000e-02 -2.068945150000000e-02 6.451020120000001e-02 -1.850253830000000e-02 4.667039290000000e-01 -8.940236140000000e-03 4.496776840000000e-02 2.357297220000000e-01
            6.451715660000000e-02 -1.852157220000000e-02 6.273169689999999e-02 -2.370556560000000e-02 4.409794330000000e-02 2.364505270000000e-01 4.664339200000000e-01 -9.385319420000000e-03
            4.667118870000000e-01 -8.930300630000000e-03 4.411795480000000e-02 2.364567700000000e-01 6.440220889999999e-02 -2.311283040000000e-02 6.675576420000000e-02 -1.965316470000000e-02
            4.495887070000000e-02 2.357288240000000e-01 4.664423180000000e-01 -9.369689690000000e-03 6.673061550000001e-02 -1.964969820000000e-02 6.492647280000000e-02 -1.880992440000000e-02
382681401.0000000000 5.552737180000000e-02 -9.935985729999999e-03 5.738105590000000e-02 -7.776099220000000e-03 4.533120320000000e-01 -1.181184240000000e-01 9.886931400000000e-02 2.162825330000000e-01
            5.738786550000000e-02 -7.770108560000000e-03 5.514728940000000e-02 -1.294893810000000e-02 9.820726239999999e-02 2.172067700000000e-01 4.529483360000000e-01 -1.184882090000000e-01
            4.533089720000000e-01 -1.181134780000000e-01 9.818997840000000e-02 2.172162070000000e-01 5.709851620000000e-02 -1.242988690000000e-02 5.975643750000000e-02 -9.481484960000000e-03
            9.886894420000000e-02 2.162741810000000e-01 4.529409270000000e-01 -1.185008990000000e-01 5.975833140000000e-02 -9.483187370000000e-03 5.762302430000000e-02 -8.136015070000001e-03
383180984.0000000000 5.370523430000000e-02 3.038512170000000e-03 5.608467610000000e-02 5.126505080000000e-03 4.140606600000000e-01 -2.216810220000000e-01 1.456014030000000e-01 1.846682430000000e-01
            5.608614570000000e-02 5.120454840000000e-03 5.331940030000000e-02 7.243065320000000e-06 1.451683230000000e-01 1.857154850000000e-01 4.136300060000000e-01 -2.219562550000000e-01
            4.140600080000000e-01 -2.216826710000000e-01 1.451813950000000e-01 1.857233640000000e-01 5.553528500000000e-02 4.054709180000000e-04 5.840366760000000e-02 2.754524800000000e-03
            1.455860430000000e-01 1.846580500000000e-01 4.136191270000000e-01 -2.219558000000000e-01 5.839670230000000e-02 2.764666020000000e-03 5.607168420000000e-02 4.669440140000000e-03
383680567.0000000000 5.799273740000000e-02 1.525578010000000e-02 6.092064850000000e-02 1.720299460000000e-02 3.509234490000000e-01 -3.131476750000000e-01 1.825447350000000e-01 1.435616940000000e-01
            6.092722360000000e-02 1.719944680000000e-02 5.761720290000000e-02 1.227092820000000e-02 1.823813280000000e-01 1.446788880000000e-01 3.504204840000000e-01 -3.133195080000000e-01
            3.509207990000000e-01 -3.131400170000000e-01 1.823931500000000e-01 1.446697860000000e-01 6.006715010000000e-02 1.236148300000000e-02 6.298397460000001e-02 1.410584050000000e-02
            1.825437650000000e-01 1.435635810000000e-01 3.504216060000000e-01 -3.133176150000000e-01 6.297992500000001e-02 1.412169820000000e-02 6.057471140000000e-02 1.664188740000000e-02
384180150.0000000000 6.727257950000000e-02 2.403920240000000e-02 7.076475950000000e-02 2.564254830000000e-02 2.677182450000000e-01 -3.867919250000000e-01 2.082261790000000e-01 9.607047150000000e-02
            7.073852870000000e-02 2.565064910000000e-02 6.691297210000000e-02 2.104454540000000e-02 2.083469130000000e-01 9.717788310000000e-02 2.672068030000000e-01 -3.868290100000000e-01
            2.677250560000000e-01 -3.867938110000000e-01 2.083397460000000e-01 9.715696480000000e-02 6.951969710000000e-02 2.079805530000000e-02 7.235006290000000e-02 2.190249130000000e-02
            2.082450740000000e-01 9.606619960000000e-02 2.672109480000000e-01 -3.868348290000000e-01 7.235214740000000e-02 2.190780180000000e-02 7.001569430000000e-02 2.504490950000000e-02
384679733.0000000000 7.929741300000000e-02 2.750496610000000e-02 8.329441730000001e-02 2.864587080000000e-02 1.697504070000000e-01 -4.383076940000000e-01 2.221876720000000e-01 4.510066570000000e-02
            8.329475490000000e-02 2.865306890000000e-02 7.894541450000001e-02 2.451253250000000e-02 2.225324650000000e-01 4.613712910000000e-02 1.692222360000000e-01 -4.382174400000000e-01
            1.697454750000000e-01 -4.383044260000000e-01 2.225349230000000e-01 4.614591040000000e-02 8.162069540000000e-02 2.381977100000000e-02 8.420882330000000e-02 2.435537270000000e-02
            2.221940480000000e-01 4.509533480000000e-02 1.692254800000000e-01 -4.382207480000000e-01 8.422741330000000e-02 2.435354930000000e-02 8.208464430000000e-02 2.807157060000000e-02
385179316.0000000000 9.131535260000000e-02 2.513901700000000e-02 9.572762040000000e-02 2.568735880000000e-02 6.301900990000001e-02 -4.651904990000000e-01 2.244777200000000e-01 -6.811103150000000e-03
            9.573466610000000e-02 2.568073540000000e-02 9.097985240000001e-02 2.215739560000000e-02 2.250681420000000e-01 -5.872729370000000e-03 6.252581590000000e-02 -4.649844090000000e-01
            6.300113770000000e-02 -4.651865170000000e-01 2.250572930000000e-01 -5.875773110000000e-03 9.358448470000000e-02 2.097953000000000e-02 9.581486890000000e-02 2.098608000000000e-02
            2.244876670000000e-01 -6.799524970000000e-03 6.251776620000001e-02 -4.649817710000000e-01 9.582129909999999e-02 2.097684160000000e-02 9.402588180000000e-02 2.521572620000000e-02
385678899.0000000000 1.007321150000000e-01 1.770926850000000e-02 1.054021320000000e-01 1.750684700000000e-02 -4.634986360000000e-02 -4.665698820000000e-01 2.154775890000000e-01 -5.748048330000000e-02
            1.053969610000000e-01 1.749354540000000e-02 1.004325150000000e-01 1.472294240000000e-02 2.162385140000000e-01 -5.668904540000000e-02 -4.678432230000000e-02 -4.662512830000000e-01
            -4.635802570000000e-02 -4.665764020000000e-01 2.162423610000000e-01 -5.670628540000000e-02 1.028056420000000e-01 1.303571880000000e-02 1.045579430000000e-01 1.261927820000000e-02
            2.154775040000000e-01 -5.745554100000000e-02 -4.678665580000000e-02 -4.662685060000000e-01 1.045547330000000e-01 1.263400170000000e-02 1.032134220000000e-01 1.731466670000000e-02
386178482.0000000000 1.056465260000000e-01 7.006951350000000e-03 1.103486200000000e-01 5.979291250000000e-03 -1.525851160000000e-01 -4.430419520000000e-01 1.956298300000000e-01 -1.048260380000000e-01
            1.103539560000000e-01 5.985223650000000e-03 1.053338140000000e-01 3.989039780000000e-03 1.965608610000000e-01 -1.042447660000000e-01 -1.529397510000000e-01 -4.426443600000000e-01
            -1.525943450000000e-01 -4.430383130000000e-01 1.965723730000000e-01 -1.042386500000000e-01 1.073238420000000e-01 1.855474710000000e-03 1.085101330000000e-01 1.134184900000000e-03
            1.956425660000000e-01 -1.048117830000000e-01 -1.529380560000000e-01 -4.426385280000000e-01 1.085087900000000e-01 1.130623900000000e-03 1.077246140000000e-01 6.124158520000000e-03
386678065.0000000000 1.051077200000000e-01 -4.633602960000000e-03 1.096275890000000e-01 -6.449033010000000e-03 -2.505037500000000e-01 -3.962250560000000e-01 1.655960500000000e-01 -1.466981380000000e-01
            1.096112040000000e-01 -6.446047030000000e-03 1.048026200000000e-01 -7.650412690000000e-03 1.666314170000000e-01 -1.463478280000000e-01 -2.507451130000000e-01 -3.957358920000000e-01
            -2.505031210000000e-01 -3.962178750000000e-01 1.666322310000000e-01 -1.463630730000000e-01 1.062424530000000e-01 -1.017401140000000e-02 1.068158150000000e-01 -1.105413180000000e-02
            1.656181490000000e-01 -1.466941090000000e-01 -2.507456410000000e-01 -3.957472720000000e-01 1.068150710000000e-01 -1.103694730000000e-02 1.066497790000000e-01 -5.877335420000000e-03
387177648.0000000000 9.931286060000000e-02 -1.465753560000000e-02 1.034204680000000e-01 -1.715618220000000e-02 -3.353924590000000e-01 -3.285294350000000e-01 1.264681260000000e-01 -1.808149090000000e-01
            1.034274090000000e-01 -1.714593580000000e-02 9.902634730000000e-02 -1.768577220000000e-02 1.275548630000000e-01 -1.807096650000000e-01 -3.355258530000000e-01 -3.279932740000000e-01
            -3.353752700000000e-01 -3.285201070000000e-01 1.275665600000000e-01 -1.807143110000000e-01 9.976040350000000e-02 -2.044778360000000e-02 9.970033210000000e-02 -2.127551080000000e-02
            1.264812130000000e-01 -1.808211670000000e-01 -3.355201840000000e-01 -3.280012370000000e-01 9.971169810000000e-02 -2.128746050000000e-02 1.001758390000000e-01 -1.612692630000000e-02
387677231.0000000000 8.954933860000000e-02 -2.084351670000000e-02 9.308936399999999e-02 -2.388916420000000e-02 -4.030871420000000e-01 -2.430651400000000e-01 8.004062730000000e-02 -2.048792870000000e-01
            9.308229649999999e-02 -2.388553870000000e-02 8.925073220000000e-02 -2.388236190000000e-02 8.113455560000001e-02 -2.050236450000000e-01 -4.030974840000000e-01 -2.425206480000000e-01
            -4.030896830000000e-01 -2.430677410000000e-01 8.112778670000000e-02 -2.050415390000000e-01 8.920843210000000e-02 -2.667478270000000e-02 8.855067270000000e-02 -2.734439380000000e-02
            8.004019649999999e-02 -2.048846770000000e-01 -4.030938900000000e-01 -2.425276890000000e-01 8.855055330000000e-02 -2.734833620000000e-02 8.960177810000000e-02 -2.235210590000000e-02
388176814.0000000000 7.796147010000000e-02 -2.175483450000000e-02 8.081257540000000e-02 -2.512550970000000e-02 -4.498791070000000e-01 -1.437389330000000e-01 2.894382300000000e-02 -2.169774620000000e-01
            8.080765700000000e-02 -2.512290270000000e-02 7.765469749999999e-02 -2.478742100000000e-02 2.994045520000000e-02 -2.173689130000000e-01 -4.497854530000000e-01 -1.432114340000000e-01
            -4.498871450000000e-01 -1.437432560000000e-01 2.994849780000000e-02 -2.173840900000000e-01 7.677754530000000e-02 -2.738168830000000e-02 7.561825790000000e-02 -2.773529170000000e-02
            2.894290160000000e-02 -2.169616160000000e-01 -4.497566600000000e-01 -1.431993300000000e-01 7.562769179999999e-02 -2.773770390000000e-02 7.720519920000000e-02 -2.306233080000000e-02
388676397.0000000000 6.723131100000000e-02 -1.707168290000000e-02 6.934629580000000e-02 -2.051488650000000e-02 -4.726601290000000e-01 -3.539845540000000e-02 -2.350047920000000e-02 -2.160524590000000e-01
            6.934550130000000e-02 -2.051304000000000e-02 6.691272510000000e-02 -2.012581310000000e-02 -2.262111890000000e-02 -2.166757170000000e-01 -4.724151520000000e-01 -3.489269380000000e-02
            -4.726612900000000e-01 -3.541243140000000e-02 -2.263016840000000e-02 -2.166799980000000e-01 6.524009800000000e-02 -2.222994620000000e-02 6.369267350000000e-02 -2.216459320000000e-02
            -2.349963840000000e-02 -2.160553910000000e-01 -4.724178390000000e-01 -3.490196070000000e-02 6.368822339999999e-02 -2.217290760000000e-02 6.567164870000000e-02 -1.790116780000000e-02
389175980.0000000000 5.991183140000000e-02 -7.780479220000000e-03 6.137980020000000e-02 -1.107414410000000e-02 -4.693769380000000e-01 7.619023670000000e-02 -7.362893490000000e-02 -2.021909120000000e-01
            6.138221390000000e-02 -1.106711530000000e-02 5.960019940000000e-02 -1.080900170000000e-02 -7.292561330000000e-02 -2.030119960000000e-01 -4.690357200000000e-01 7.663462570000000e-02
            -4.693852000000000e-01 7.618811800000000e-02 -7.293435400000001e-02 -2.030075160000000e-01 5.729847730000000e-02 -1.220636820000000e-02 5.549438590000000e-02 -1.166656190000000e-02
            -7.363272620000000e-02 -2.021924110000000e-01 -4.690413510000000e-01 7.662650590000000e-02 5.549847570000000e-02 -1.167648720000000e-02 5.772755240000000e-02 -7.904286809999999e-03
389675563.0000000000 5.786712210000000e-02 3.964448220000000e-03 5.880370540000000e-02 1.019639560000000e-03 -4.394991830000000e-01 1.845296240000000e-01 -1.180269160000000e-01 -1.767572800000000e-01
            5.879589700000000e-02 1.011798950000000e-03 5.754784670000000e-02 9.384533550000000e-04 -1.175394560000000e-01 -1.777246050000000e-01 -4.390537150000000e-01 1.848581010000000e-01
            -4.395079320000000e-01 1.845273220000000e-01 -1.175645510000000e-01 -1.777210200000000e-01 5.484623290000000e-02 4.666428840000000e-04 5.293236110000000e-02 1.481177390000000e-03
            -1.180390880000000e-01 -1.767681040000000e-01 -4.390465850000000e-01 1.848677240000000e-01 5.292640090000000e-02 1.485615860000000e-03 5.528103790000000e-02 4.749102810000000e-03
390175146.0000000000 6.162414290000000e-02 1.535317340000000e-02 6.222252370000000e-02 1.287978030000000e-02 -3.843762800000000e-01 2.828878550000000e-01 -1.541166580000000e-01 -1.421166820000000e-01
            6.222170330000000e-02 1.289251590000000e-02 6.132209940000000e-02 1.234627000000000e-02 -1.538810000000000e-01 -1.431347900000000e-01 -3.838608170000000e-01 2.830971180000000e-01
            -3.843669950000000e-01 2.828735370000000e-01 -1.538911450000000e-01 -1.431335880000000e-01 5.850233450000000e-02 1.287882720000000e-02 5.661895740000000e-02 1.435637960000000e-02
            -1.541236240000000e-01 -1.421180380000000e-01 -3.838336230000000e-01 2.831033670000000e-01 5.662132050000000e-02 1.435309160000000e-02 5.894077620000000e-02 1.715745820000000e-02
390674729.0000000000 7.034992810000000e-02 2.368508480000000e-02 7.081313500000000e-02 2.174570590000000e-02 -3.073044050000000e-01 3.651402400000000e-01 -1.803755000000000e-01 -1.009869890000000e-01
            7.082480010000000e-02 2.174054330000000e-02 7.005260980000000e-02 2.069208200000000e-02 -1.803827430000000e-01 -1.020301990000000e-01 -3.067501430000000e-01 3.652436110000000e-01
            -3.072990950000000e-01 3.651379780000000e-01 -1.803924750000000e-01 -1.020369360000000e-01 6.743992720000000e-02 2.222545920000000e-02 6.568337270000001e-02 2.407378320000000e-02
            -1.803751920000000e-01 -1.009848410000000e-01 -3.067537670000000e-01 3.652353180000000e-01 6.568909880000000e-02 2.408466180000000e-02 6.785720400000000e-02 2.648989230000000e-02
391174312.0000000000 8.197013309999999e-02 2.700202700000000e-02 8.250636779999999e-02 2.555958360000000e-02 -2.132077690000000e-01 4.264413380000000e-01 -1.962141110000000e-01 -5.609020340000000e-02
            8.250640220000000e-02 2.555009120000000e-02 8.167149770000000e-02 2.402242140000000e-02 -1.964573060000000e-01 -5.709378070000000e-02 -2.126407640000000e-01 4.264146500000000e-01
            -2.132068010000000e-01 4.264366930000000e-01 -1.964500390000000e-01 -5.709249500000000e-02 7.958960710000000e-02 2.643555950000000e-02 7.800175140000000e-02 2.858900040000000e-02
            -1.962114690000000e-01 -5.608424630000000e-02 -2.126516380000000e-01 4.264145070000000e-01 7.800748970000000e-02 2.859483620000000e-02 7.994702920000001e-02 3.068115820000000e-02
391673895.0000000000 9.380184680000000e-02 2.462238270000000e-02 9.460002800000000e-02 2.357702410000000e-02 -1.079294040000000e-01 4.636600360000000e-01 -2.016340020000000e-01 -9.724011419999999e-03
            9.461316700000000e-02 2.356741490000000e-02 9.353131410000000e-02 2.161550150000000e-02 -2.021126330000000e-01 -1.063301280000000e-02 -1.073759490000000e-01 4.635001550000000e-01
            -1.079371060000000e-01 4.636573890000000e-01 -2.021086050000000e-01 -1.062941880000000e-02 9.219819180000000e-02 2.473163820000000e-02 9.080873720000000e-02 2.707440160000000e-02
            -2.016549350000000e-01 -9.725407320000001e-03 -1.073906680000000e-01 4.635068710000000e-01 9.079963970000000e-02 2.707897130000000e-02 9.255094120000000e-02 2.899383440000000e-02
392173478.0000000000 1.032771010000000e-01 1.709555200000000e-02 1.044536360000000e-01 1.628981130000000e-02 2.383526370000000e-03 4.753623070000000e-01 -1.969472020000000e-01 3.616905440000000e-02
            1.044423370000000e-01 1.629782880000000e-02 1.030311210000000e-01 1.408525760000000e-02 -1.976081110000000e-01 3.538895680000000e-02 2.868136130000000e-03 4.750731700000000e-01
            2.382774910000000e-03 4.753686800000000e-01 -1.976158960000000e-01 3.538134330000000e-02 1.025798820000000e-01 1.760135300000000e-02 1.013730920000000e-01 2.009093910000000e-02
            -1.969496190000000e-01 3.616927110000000e-02 2.864408580000000e-03 4.750771210000000e-01 1.013738330000000e-01 2.008431840000000e-02 1.029038700000000e-01 2.186005730000000e-02
392673061.0000000000 1.083677380000000e-01 6.096889110000000e-03 1.099752900000000e-01 5.371927870000000e-03 1.118421120000000e-01 4.615846610000000e-01 -1.824588490000000e-01 7.979918090000000e-02
            1.099699450000000e-01 5.380127220000000e-03 1.081272770000000e-01 3.071251390000000e-03 -1.832752060000000e-01 7.919035430000000e-02 1.122505240000000e-01 4.611858960000000e-01
            1.118384120000000e-01 4.615747500000000e-01 -1.832859380000000e-01 7.919847839999999e-02 1.086481430000000e-01 6.685654000000000e-03 1.075679110000000e-01 9.250439600000000e-03
            -1.824722810000000e-01 7.980142740000000e-02 1.122557410000000e-01 4.611770050000000e-01 1.075741340000000e-01 9.252928969999999e-03 1.089571540000000e-01 1.096551390000000e-02
393172644.0000000000 1.079901170000000e-01 -6.059540570000000e-03 1.100430410000000e-01 -6.891711340000000e-03 2.149886130000000e-01 4.235188230000000e-01 -1.585823540000000e-01 1.192734850000000e-01
            1.100415450000000e-01 -6.878185080000000e-03 1.077672090000000e-01 -9.099893410000000e-03 -1.595215850000000e-01 1.188603360000000e-01 2.153085360000000e-01 4.230275560000000e-01
            2.150190020000000e-01 4.235039860000000e-01 -1.595149570000000e-01 1.188777440000000e-01 1.091898740000000e-01 -5.710292620000000e-03 1.081923320000000e-01 -3.075849200000000e-03
            -1.585866330000000e-01 1.192852300000000e-01 2.153122610000000e-01 4.230340270000000e-01 1.081879570000000e-01 -3.082460350000000e-03 1.094968680000000e-01 -1.416885160000000e-03
393672227.0000000000 1.021947240000000e-01 -1.687206360000000e-02 1.046068520000000e-01 -1.791538530000000e-02 3.069402420000000e-01 3.632020710000000e-01 -1.260461920000000e-01 1.525315500000000e-01
            1.045992940000000e-01 -1.792022330000000e-02 1.019634990000000e-01 -1.991793590000000e-02 -1.270629850000000e-01 1.523466410000000e-01 3.071195260000000e-01 3.626448150000000e-01
            3.069421660000000e-01 3.631903510000000e-01 -1.270665920000000e-01 1.523496070000000e-01 1.041660200000000e-01 -1.701541580000000e-02 1.032026950000000e-01 -1.427961320000000e-02
            -1.260788200000000e-01 1.525420300000000e-01 3.071313010000000e-01 3.626541580000000e-01 1.031896880000000e-01 -1.428353220000000e-02 1.044636690000000e-01 -1.269918230000000e-02
394171810.0000000000 9.208420620000000e-02 -2.402854540000000e-02 9.476404700000000e-02 -2.540430870000000e-02 3.831714050000000e-01 2.834194860000000e-01 -8.625791670000001e-02 1.773842710000000e-01
            9.477479610000000e-02 -2.540338170000000e-02 9.185125540000000e-02 -2.705486740000000e-02 -8.729369910000000e-02 1.774581880000000e-01 3.832346250000000e-01 2.828433650000000e-01
            3.831687300000000e-01 2.834186490000000e-01 -8.727382000000000e-02 1.774591040000000e-01 9.459498780000000e-02 -2.485329410000000e-02 9.361413120000001e-02 -2.195854770000000e-02
            -8.626603340000000e-02 1.773926990000000e-01 3.832475540000000e-01 2.828432240000000e-01 9.361714140000001e-02 -2.195817460000000e-02 9.490593310000001e-02 -2.052129100000000e-02
394671393.0000000000 7.971651830000000e-02 -2.587458600000000e-02 8.258120300000001e-02 -2.765702260000000e-02 4.396375850000000e-01 1.878360680000000e-01 -4.135385120000000e-02 1.918888030000000e-01
            8.257615679999999e-02 -2.767376590000000e-02 7.949224610000000e-02 -2.892847410000000e-02 -4.232324270000000e-02 1.921975390000000e-01 4.395689040000000e-01 1.872507500000000e-01
            4.396427270000000e-01 1.878220180000000e-01 -4.232469050000000e-02 1.922036230000000e-01 8.248760870000001e-02 -2.753523060000000e-02 8.153909010000000e-02 -2.438951660000000e-02
            -4.135921610000000e-02 1.918947260000000e-01 4.395613780000000e-01 1.872360400000000e-01 8.153908040000001e-02 -2.439049990000000e-02 8.279952560000001e-02 -2.319659680000000e-02
395170976.0000000000 6.775053920000000e-02 -2.191145570000000e-02 7.064733330000000e-02 -2.412088930000000e-02 4.728395980000000e-01 8.091574009999999e-02 5.761202180000000e-03 1.947835450000000e-01
            7.063949310000001e-02 -2.412646350000000e-02 6.751610540000000e-02 -2.495303970000000e-02 4.903615500000000e-03 1.953191700000000e-01 4.726296000000000e-01 8.036939830000001e-02
            4.728287260000000e-01 8.092336450000000e-02 4.899953360000000e-03 1.952942950000000e-01 7.045166760000000e-02 -2.440038710000000e-02 6.959819620000000e-02 -2.092675250000000e-02
            5.772356290000000e-03 1.947792890000000e-01 4.726357580000000e-01 8.037916050000000e-02 6.960061850000000e-02 -2.091465410000000e-02 7.078072909999999e-02 -2.005636530000000e-02
395670559.0000000000 5.884084880000000e-02 -1.286155810000000e-02 6.169086630000000e-02 -1.550261550000000e-02 4.801957760000000e-01 -3.171405890000000e-02 5.174537020000000e-02 1.857974820000000e-01
            6.170493590000000e-02 -1.548793520000000e-02 5.858059140000000e-02 -1.588708870000000e-02 5.103085020000000e-02 1.864973730000000e-01 4.798585530000000e-01 -3.218555500000000e-02
            4.801843620000000e-01 -3.170313070000000e-02 5.102189410000000e-02 1.865146650000000e-01 6.120927110000000e-02 -1.606283170000000e-02 6.053407560000000e-02 -1.218185710000000e-02
            5.174601700000000e-02 1.858014710000000e-01 4.798699120000000e-01 -3.219374130000000e-02 6.055618200000000e-02 -1.218921030000000e-02 6.155715530000000e-02 -1.173537040000000e-02
396170142.0000000000 5.507541640000000e-02 -6.927876759999999e-04 5.779188810000000e-02 -3.737914370000000e-03 4.605180470000000e-01 -1.436179810000000e-01 9.333448410000000e-02 1.659017780000000e-01
            5.779532990000000e-02 -3.741782020000000e-03 5.482092950000000e-02 -3.710629180000000e-03 9.283913670000001e-02 1.667528610000000e-01 4.600825620000000e-01 -1.440039800000000e-01
            4.605240390000000e-01 -1.436086670000000e-01 9.282465819999999e-02 1.667620460000000e-01 5.686673180000000e-02 -4.445467210000000e-03 5.655676470000000e-02 -1.684243560000000e-04
            9.333519090000000e-02 1.659125640000000e-01 4.600907870000000e-01 -1.440163810000000e-01 5.656753660000000e-02 -1.540821820000000e-04 5.720795980000000e-02 -1.421158990000000e-04
396669725.0000000000 5.731020680000000e-02 1.180547100000000e-02 5.984857880000000e-02 8.381084250000000e-03 4.145174390000000e-01 -2.479741680000000e-01 1.279530390000000e-01 1.370859880000000e-01
            5.984582530000000e-02 8.391213500000000e-03 5.707679040000000e-02 8.795577600000000e-03 1.276730470000000e-01 1.380291990000000e-01 4.139937370000000e-01 -2.482552300000000e-01
            4.145126040000000e-01 -2.479779860000000e-01 1.276635400000000e-01 1.380231970000000e-01 5.842134150000000e-02 7.770905940000000e-03 5.862253720000000e-02 1.240757340000000e-02
            1.279659160000000e-01 1.370828970000000e-01 4.139902260000000e-01 -2.482643880000000e-01 5.863160360000000e-02 1.241141480000000e-02 5.875431130000000e-02 1.207318060000000e-02
397169308.0000000000 6.501660020000000e-02 2.180196210000000e-02 6.728626570000000e-02 1.801195470000000e-02 3.448313750000000e-01 -3.383061190000000e-01 1.540042950000000e-01 1.018242210000000e-01
            6.728856580000001e-02 1.801278860000000e-02 6.477810010000000e-02 1.879710650000000e-02 1.539276880000000e-01 1.027972830000000e-01 3.442582740000000e-01 -3.384704360000000e-01
            3.448416540000000e-01 -3.383146720000000e-01 1.539385080000000e-01 1.028025790000000e-01 6.540075170000000e-02 1.774001730000000e-02 6.626225490000000e-02 2.262414780000000e-02
            1.539947150000000e-01 1.018229320000000e-01 3.442483800000000e-01 -3.384745360000000e-01 6.626751400000000e-02 2.261948470000000e-02 6.571632540000000e-02 2.203111640000000e-02
397668891.0000000000 7.631482850000000e-02 2.708231790000000e-02 7.826858580000000e-02 2.294788390000000e-02 2.559044870000000e-01 -4.092250250000000e-01 1.707813930000000e-01 6.263997360000000e-02
            7.826114050000001e-02 2.292411820000000e-02 7.610215310000000e-02 2.407176000000000e-02 1.709443340000000e-01 6.358129910000000e-02 2.553112660000000e-01 -4.092495220000000e-01
            2.559230740000000e-01 -4.092097900000000e-01 1.709496680000000e-01 6.357934560000000e-02 7.603050600000000e-02 2.324567990000000e-02 7.770015890000000e-02 2.819937080000000e-02
            1.707928730000000e-01 6.263113980000000e-02 2.553004510000000e-01 -4.092409880000000e-01 7.769999869999999e-02 2.817959790000000e-02 7.631511750000000e-02 2.752140190000000e-02
398168474.0000000000 8.859696010000000e-02 2.659949080000000e-02 9.015084760000000e-02 2.214734900000000e-02 1.533052730000000e-01 -4.568980810000000e-01 1.783129430000000e-01 2.167193770000000e-02
            9.015635490000000e-02 2.214658170000000e-02 8.840702280000000e-02 2.359643370000000e-02 1.786775110000000e-01 2.254910690000000e-02 1.527190870000000e-01 -4.567824140000000e-01
            1.533389720000000e-01 -4.569015580000000e-01 1.786741390000000e-01 2.254091870000000e-02 8.780196120000000e-02 2.321093900000000e-02 9.031587789999999e-02 2.799266680000000e-02
            1.782876850000000e-01 2.167213520000000e-02 1.527360280000000e-01 -4.567945120000000e-01 9.033415990000000e-02 2.798946090000000e-02 8.806054310000000e-02 2.748180000000000e-02
398668057.0000000000 9.919077760000000e-02 2.067351370000000e-02 1.002455900000000e-01 1.593813280000000e-02 4.314451890000000e-02 -4.792753450000000e-01 1.768065880000000e-01 -1.934740800000000e-02
            1.002457350000000e-01 1.595507430000000e-02 9.899927030000000e-02 1.767471960000000e-02 1.773711980000000e-01 -1.856234770000000e-02 4.260091560000000e-02 -4.790177560000000e-01
            4.314611130000000e-02 -4.792691210000000e-01 1.773685320000000e-01 -1.858086460000000e-02 9.804396700000000e-02 1.782288050000000e-02 1.014106460000000e-01 2.220135560000000e-02
            1.768121740000000e-01 -1.934554300000000e-02 4.260636570000000e-02 -4.790112890000000e-01 1.014152790000000e-01 2.219198610000000e-02 9.826349619999999e-02 2.209068590000000e-02
399167640.0000000000 1.058451330000000e-01 1.068467450000000e-02 1.062973440000000e-01 5.759723160000000e-03 -6.858802570000000e-02 -4.757752120000000e-01 1.665466660000000e-01 -5.882265980000000e-02
            1.063173360000000e-01 5.758311580000000e-03 1.056809810000000e-01 7.668572650000000e-03 1.672700300000000e-01 -5.820152540000000e-02 -6.905370690000000e-02 -4.754086710000000e-01
            -6.858377089999999e-02 -4.757799550000000e-01 1.672479530000000e-01 -5.820284510000000e-02 1.045361450000000e-01 8.445651940000000e-03 1.086727780000000e-01 1.217448790000000e-02
            1.665493820000000e-01 -5.882464320000000e-02 -6.905474680000000e-02 -4.754237570000000e-01 1.086694680000000e-01 1.217386840000000e-02 1.047698240000000e-01 1.274462640000000e-02
399667223.0000000000 1.072612030000000e-01 -1.132953100000000e-03 1.070267910000000e-01 -6.152736090000000e-03 -1.762256650000000e-01 -4.471436930000000e-01 1.478146310000000e-01 -9.515329570000000e-02
            1.070272740000000e-01 -6.149806640000000e-03 1.070986800000000e-01 -4.183833570000000e-03 1.486675150000000e-01 -9.471864369999999e-02 -1.766172010000000e-01 -4.466773440000000e-01
            -1.762423050000000e-01 -4.471480410000000e-01 1.486559930000000e-01 -9.470288220000000e-02 1.059862430000000e-01 -2.789139080000000e-03 1.106900340000000e-01 1.217043860000000e-04
            1.477997480000000e-01 -9.515008970000000e-02 -1.766051000000000e-01 -4.466667090000000e-01 1.106873410000000e-01 1.151446630000000e-04 1.062061350000000e-01 1.522600390000000e-03
400166806.0000000000 1.031588020000000e-01 -1.228912740000000e-02 1.021735240000000e-01 -1.722431300000000e-02 -2.746051940000000e-01 -3.949712180000000e-01 1.211309700000000e-01 -1.265318820000000e-01
            1.021705430000000e-01 -1.722821340000000e-02 1.029997030000000e-01 -1.532987700000000e-02 1.220454990000000e-01 -1.262795080000000e-01 -2.748461900000000e-01 -3.944212230000000e-01
            -2.745844230000000e-01 -3.949655650000000e-01 1.220435660000000e-01 -1.262930430000000e-01 1.020888670000000e-01 -1.339782770000000e-02 1.071485160000000e-01 -1.150090880000000e-02
            1.211310020000000e-01 -1.265240120000000e-01 -2.748529790000000e-01 -3.944089620000000e-01 1.071422300000000e-01 -1.150527330000000e-02 1.023034470000000e-01 -9.077814940000000e-03
400666389.0000000000 9.441818130000000e-02 -2.036684570000000e-02 9.265309600000000e-02 -2.502102960000000e-02 -3.588525690000000e-01 -3.217356040000000e-01 8.749527120000000e-02 -1.509454290000000e-01
            9.265407350000000e-02 -2.502627470000000e-02 9.425264020000000e-02 -2.340403780000000e-02 8.844865909999999e-02 -1.509389850000000e-01 -3.589766190000000e-01 -3.211268460000000e-01
            -3.588577680000000e-01 -3.217297900000000e-01 8.843836660000000e-02 -1.509486710000000e-01 9.366399200000000e-02 -2.105264710000000e-02 9.879296500000000e-02 -2.020020090000000e-02
            8.748796130000000e-02 -1.509350340000000e-01 -3.589878480000000e-01 -3.211256140000000e-01 9.879912500000000e-02 -2.019789130000000e-02 9.389955520000000e-02 -1.671318270000000e-02
401165972.0000000000 8.289533100000000e-02 -2.354185300000000e-02 8.037095390000000e-02 -2.771860680000000e-02 -4.246470140000000e-01 -2.307311230000000e-01 4.868092870000000e-02 -1.665491320000000e-01
            8.037539140000000e-02 -2.770054040000000e-02 8.271908250000000e-02 -2.659464260000000e-02 4.960788780000000e-02 -1.667621660000000e-01 -4.246266400000000e-01 -2.301287560000000e-01
            -4.246577050000000e-01 -2.307403750000000e-01 4.960459110000000e-02 -1.667567860000000e-01 8.252369170000000e-02 -2.393010640000000e-02 8.743248739999999e-02 -2.413610440000000e-02
            4.866847850000000e-02 -1.665526130000000e-01 -4.246400690000000e-01 -2.301307750000000e-01 8.745405119999999e-02 -2.411367130000000e-02 8.276623980000000e-02 -1.959816470000000e-02
401665555.0000000000 7.108598380000000e-02 -2.101624250000000e-02 6.796998410000001e-02 -2.446610810000000e-02 -4.680519120000000e-01 -1.262465480000000e-01 7.171325900000000e-03 -1.719422900000000e-01
            6.795961070000001e-02 -2.446267010000000e-02 7.091262830000000e-02 -2.407984610000000e-02 8.003190500000000e-03 -1.723797240000000e-01 -4.678913430000000e-01 -1.256772480000000e-01
            -4.680549220000000e-01 -1.262734110000000e-01 8.007569859999999e-03 -1.723627640000000e-01 7.115724540000000e-02 -2.128177760000000e-02 7.560173800000000e-02 -2.236220900000000e-02
            7.154453570000000e-03 -1.719494170000000e-01 -4.678729220000000e-01 -1.256677130000000e-01 7.560578590000000e-02 -2.234915810000000e-02 7.140712430000000e-02 -1.693497370000000e-02
402165138.0000000000 6.175611620000000e-02 -1.323637000000000e-02 5.818234470000000e-02 -1.578413350000000e-02 -4.859920400000000e-01 -1.366553570000000e-02 -3.404042840000000e-02 -1.666998090000000e-01
            5.818610700000000e-02 -1.579888800000000e-02 6.157345840000000e-02 -1.626789580000000e-02 -3.333375990000000e-02 -1.673125300000000e-01 -4.856727660000000e-01 -1.313088840000000e-02
            -4.859858840000000e-01 -1.366866770000000e-02 -3.332914700000000e-02 -1.672961120000000e-01 6.220910380000000e-02 -1.344817380000000e-02 6.597010040000000e-02 -1.528305080000000e-02
            -3.403993440000000e-02 -1.666900360000000e-01 -4.856834560000000e-01 -1.311067760000000e-02 6.596778500000000e-02 -1.527495430000000e-02 6.244716990000000e-02 -9.127666570000000e-03
402664721.0000000000 5.707291750000000e-02 -1.905789140000000e-03 5.335471580000000e-02 -3.471937800000000e-03 -4.767286090000000e-01 1.006986510000000e-01 -7.191766320000000e-02 -1.514547220000000e-01
            5.335240470000000e-02 -3.462876310000000e-03 5.688885350000000e-02 -4.937532450000000e-03 -7.139502940000000e-02 -1.522025820000000e-01 -4.763011510000000e-01 1.011642030000000e-01
            -4.767115070000000e-01 1.007026620000000e-01 -7.140055989999999e-02 -1.522076150000000e-01 5.786278670000000e-02 -2.182777730000000e-03 6.086189710000000e-02 -4.518222990000000e-03
            -7.192418950000000e-02 -1.514559580000000e-01 -4.763003150000000e-01 1.011598400000000e-01 6.086409400000000e-02 -4.513457050000000e-03 5.811032640000000e-02 2.122124720000000e-03
403164304.0000000000 5.824399030000000e-02 1.032918610000000e-02 5.465087800000000e-02 9.788812680000000e-03 -4.402768700000000e-01 2.099381080000000e-01 -1.040333730000000e-01 -1.278889570000000e-01
            5.463638470000000e-02 9.767155410000001e-03 5.806003510000000e-02 7.311042040000000e-03 -1.036868020000000e-01 -1.287356250000000e-01 -4.397660810000000e-01 2.103141260000000e-01
            -4.402870500000000e-01 2.099466800000000e-01 -1.036987280000000e-01 -1.287376080000000e-01 5.928776080000000e-02 9.958605020000001e-03 6.144849800000000e-02 7.369736640000000e-03
            -1.040080640000000e-01 -1.278949450000000e-01 -4.397668930000000e-01 2.103056790000000e-01 6.145783750000000e-02 7.383007430000000e-03 5.952888670000000e-02 1.424976180000000e-02
403663887.0000000000 6.497179160000000e-02 2.063123210000000e-02 6.177312370000000e-02 2.100915250000000e-02 -3.787298570000000e-01 3.073224830000000e-01 -1.287440750000000e-01 -9.823489069999999e-02
            6.177361100000000e-02 2.100828490000000e-02 6.480731689999999e-02 1.762495190000000e-02 -1.286334350000000e-01 -9.910272250000000e-02 -3.781525740000000e-01 3.075529450000000e-01
            -3.787436450000000e-01 3.073205510000000e-01 -1.286282070000000e-01 -9.910408110000000e-02 6.622441370000000e-02 2.013368450000000e-02 6.758869860000000e-02 1.753423890000000e-02
            -1.287492310000000e-01 -9.821976630000000e-02 -3.781497270000000e-01 3.075426930000000e-01 6.758811010000000e-02 1.751604070000000e-02 6.644832950000000e-02 2.440236670000000e-02
404163470.0000000000 7.568133460000000e-02 2.663340800000000e-02 7.312656880000000e-02 2.775291180000000e-02 -2.960023620000000e-01 3.869682230000000e-01 -1.454388870000000e-01 -6.475570540000000e-02
            7.312896980000000e-02 2.776314480000000e-02 7.552524930000000e-02 2.362767270000000e-02 -1.455187980000000e-01 -6.563872930000000e-02 -2.953952380000000e-01 3.870581100000000e-01
            -2.960147680000000e-01 3.869671920000000e-01 -1.455195590000000e-01 -6.562604810000000e-02 7.708875000000000e-02 2.599363920000000e-02 7.774323960000000e-02 2.359243250000000e-02
            -1.454293960000000e-01 -6.474686480000000e-02 -2.953757580000000e-01 3.870631080000000e-01 7.775234530000000e-02 2.360117310000000e-02 7.729244250000000e-02 3.027260040000000e-02
404663053.0000000000 8.788122840000000e-02 2.705452360000000e-02 8.613587900000000e-02 2.868063750000000e-02 -1.973825370000000e-01 4.445354780000000e-01 -1.540699510000000e-01 -2.938887250000000e-02
            8.612432680000000e-02 2.869747210000000e-02 8.774757110000000e-02 2.404650920000000e-02 -1.543451320000000e-01 -3.022908840000000e-02 -1.967413340000000e-01 4.444698970000000e-01
            -1.973803630000000e-01 4.445342790000000e-01 -1.543474250000000e-01 -3.022127250000000e-02 8.941282600000000e-02 2.628754450000000e-02 8.955293150000000e-02 2.422083300000000e-02
            -1.540714840000000e-01 -2.939498150000000e-02 -1.967484210000000e-01 4.444765130000000e-01 8.954034710000000e-02 2.423117390000000e-02 8.958292280000001e-02 3.056457030000000e-02
405162636.0000000000 9.888193920000000e-02 2.192204280000000e-02 9.801113690000000e-02 2.378204840000000e-02 -8.877374730000000e-02 4.773394570000000e-01 -1.549278770000000e-01 6.297523540000000e-03
            9.799401839999999e-02 2.377547930000000e-02 9.876669239999999e-02 1.892507200000000e-02 -1.553706370000000e-01 5.570457580000000e-03 -8.817249490000000e-02 4.771280080000000e-01
            -8.877740060000000e-02 4.773414830000000e-01 -1.553604960000000e-01 5.564799210000000e-03 1.005115520000000e-01 2.103712050000000e-02 1.002802610000000e-01 1.936549420000000e-02
            -1.549129050000000e-01 6.301758020000000e-03 -8.817491550000001e-02 4.771176620000000e-01 1.002749720000000e-01 1.935595570000000e-02 1.006600210000000e-01 2.530524590000000e-02
405662219.0000000000 1.063554430000000e-01 1.244286750000000e-02 1.062948920000000e-01 1.424296300000000e-02 2.378179130000000e-02 4.842758190000000e-01 -1.481880040000000e-01 4.107528850000000e-02
            1.063031030000000e-01 1.424609970000000e-02 1.062499590000000e-01 9.443715300000001e-03 -1.487904860000000e-01 4.045960140000000e-02 2.432297040000000e-02 4.839330510000000e-01
            2.378981520000000e-02 4.842826060000000e-01 -1.487829330000000e-01 4.047346740000000e-02 1.080440160000000e-01 1.138751760000000e-02 1.076424020000000e-01 1.015750680000000e-02
            -1.481872360000000e-01 4.105080810000000e-02 2.433234300000000e-02 4.839288140000000e-01 1.076279690000000e-01 1.015020280000000e-02 1.081771490000000e-01 1.568847330000000e-02
406161802.0000000000 1.088012130000000e-01 6.621284760000000e-04 1.094029450000000e-01 2.171878020000000e-03 1.345407330000000e-01 4.655522910000000e-01 -1.340585150000000e-01 7.361292870000000e-02
            1.094048870000000e-01 2.172569050000000e-03 1.086916810000000e-01 -2.354597300000000e-03 -1.347918090000000e-01 7.316239120000000e-02 1.349808750000000e-01 4.650954050000000e-01
            1.345374740000000e-01 4.655545810000000e-01 -1.347860940000000e-01 7.316186650000001e-02 1.104990030000000e-01 -5.684123010000000e-04 1.100801020000000e-01 -1.406850390000000e-03
            -1.340675320000000e-01 7.361791900000000e-02 1.349816120000000e-01 4.651092740000000e-01 1.100832670000000e-01 -1.414047600000000e-03 1.106278660000000e-01 3.747476970000000e-03
406661384.0000000000 1.057310580000000e-01 -1.096746040000000e-02 1.067788250000000e-01 -9.883522049999999e-03 2.381010130000000e-01 4.224012180000000e-01 -1.127998250000000e-01 1.023951980000000e-01
            1.067898930000000e-01 -9.890593660000000e-03 1.056465400000000e-01 -1.400282750000000e-02 -1.136166140000000e-01 1.021367640000000e-01 2.384183240000000e-01 4.218464310000000e-01
            2.381061000000000e-01 4.223915450000000e-01 -1.136094970000000e-01 1.021438080000000e-01 1.073829070000000e-01 -1.234355900000000e-02 1.070802570000000e-01 -1.290285590000000e-02
            -1.128068110000000e-01 1.024006350000000e-01 2.384342800000000e-01 4.218558690000000e-01 1.070808480000000e-01 -1.290879390000000e-02 1.074914630000000e-01 -8.024735270000000e-03
407160967.0000000000 9.777129270000000e-02 -1.998434870000000e-02 9.904181939999999e-02 -1.940780420000000e-02 3.294515450000000e-01 3.568525460000000e-01 -8.509005109999999e-02 1.256572280000000e-01
            9.904295010000000e-02 -1.939278620000000e-02 9.767924209999999e-02 -2.304801950000000e-02 -8.594733150000000e-02 1.255908380000000e-01 3.296399080000000e-01 3.562341950000000e-01
            3.294525450000000e-01 3.568337910000000e-01 -8.594435470000000e-02 1.255925820000000e-01 9.927488850000001e-02 -2.153003880000000e-02 9.918400540000000e-02 -2.191265340000000e-02
            -8.508448010000000e-02 1.256532770000000e-01 3.296344230000000e-01 3.562336520000000e-01 9.918307730000001e-02 -2.191096660000000e-02 9.940039639999999e-02 -1.718811170000000e-02
407660550.0000000000 8.656710040000000e-02 -2.449907350000000e-02 8.782536510000000e-02 -2.431787670000000e-02 4.039228880000000e-01 2.718372530000000e-01 -5.224200350000000e-02 1.416044030000000e-01
            8.782838200000000e-02 -2.430748710000000e-02 8.646329160000001e-02 -2.756134600000000e-02 -5.310547010000000e-02 1.417493290000000e-01 4.039745960000000e-01 2.711967610000000e-01
            4.039203620000000e-01 2.718331070000000e-01 -5.309989200000000e-02 1.417490790000000e-01 8.786754049999999e-02 -2.611489060000000e-02 8.799797769999999e-02 -2.642434900000000e-02
            -5.224935050000000e-02 1.416085040000000e-01 4.039664020000000e-01 2.712038720000000e-01 8.799265550000000e-02 -2.642351930000000e-02 8.799914210000000e-02 -2.176303150000000e-02
408160133.0000000000 7.449955570000000e-02 -2.343191690000000e-02 7.556185100000000e-02 -2.349469410000000e-02 4.572726710000000e-01 1.712830880000000e-01 -1.632304770000000e-02 1.487927490000000e-01
            7.556724630000000e-02 -2.349136220000000e-02 7.438226080000000e-02 -2.647440820000000e-02 -1.710811180000000e-02 1.491273410000000e-01 4.571822280000000e-01 1.706539900000000e-01
            4.572924240000000e-01 1.712754650000000e-01 -1.711857790000000e-02 1.491213200000000e-01 7.553954740000000e-02 -2.502303160000000e-02 7.589954480000000e-02 -2.539512330000000e-02
            -1.632805940000000e-02 1.487957590000000e-01 4.571718940000000e-01 1.706442020000000e-01 7.588570450000000e-02 -2.538790770000000e-02 7.566606590000000e-02 -2.066765640000000e-02
408659716.0000000000 6.423338720000001e-02 -1.693787160000000e-02 6.505670730000000e-02 -1.702937440000000e-02 4.859671370000000e-01 6.021233910000000e-02 1.999908350000000e-02 1.465405150000000e-01
            6.504607370000000e-02 -1.702903890000000e-02 6.409551590000000e-02 -1.996605100000000e-02 1.933826810000000e-02 1.470643920000000e-01 4.857123520000000e-01 5.961865370000000e-02
            4.859640520000000e-01 6.022769840000000e-02 1.933846880000000e-02 1.470492810000000e-01 6.498076749999999e-02 -1.836540250000000e-02 6.554469160000000e-02 -1.887507330000000e-02
            2.000736550000000e-02 1.465429890000000e-01 4.857211450000000e-01 5.961343860000000e-02 6.555001720000000e-02 -1.887025400000000e-02 6.512354670000001e-02 -1.402231510000000e-02
409159299.0000000000 5.811563600000000e-02 -6.409805060000000e-03 5.875925240000000e-02 -6.328000890000000e-03 4.876570860000000e-01 -5.525028760000000e-02 5.397560930000000e-02 1.352174420000000e-01
            5.875617070000000e-02 -6.331999330000000e-03 5.799422300000000e-02 -9.437619970000000e-03 5.345526980000000e-02 1.358588150000000e-01 4.872525120000000e-01 -5.577153600000000e-02
            4.876691190000000e-01 -5.525343590000000e-02 5.345966140000000e-02 1.358656260000000e-01 5.865447060000000e-02 -7.546301200000000e-03 5.935007800000000e-02 -8.285832340000000e-03
            5.399578370000000e-02 1.352175910000000e-01 4.872622280000000e-01 -5.576350960000000e-02 5.934551270000000e-02 -8.297077789999999e-03 5.881827640000000e-02 -3.213843220000000e-03
409658882.0000000000 5.763466000000000e-02 5.701030330000000e-03 5.820570280000000e-02 6.107260850000000e-03 4.616508470000000e-01 -1.682514470000000e-01 8.320568220000001e-02 1.161546890000000e-01
            5.820540370000000e-02 6.124494520000000e-03 5.751189260000000e-02 2.674476320000000e-03 8.287493210000001e-02 1.169060070000000e-01 4.611444900000000e-01 -1.686725670000000e-01
            4.616580240000000e-01 -1.682471090000000e-01 8.287480460000000e-02 1.168916440000000e-01 5.802242910000000e-02 4.979429290000000e-03 5.878966600000000e-02 3.916742770000000e-03
            8.319849470000000e-02 1.161578410000000e-01 4.611565230000000e-01 -1.686795280000000e-01 5.877563900000000e-02 3.932058180000000e-03 5.818059740000000e-02 9.300718400000000e-03
410158465.0000000000 6.281108800000000e-02 1.652945940000000e-02 6.355846220000000e-02 1.737946920000000e-02 4.093283260000000e-01 -2.718449200000000e-01 1.060989170000000e-01 9.135396950000001e-02
            6.355571280000000e-02 1.738909770000000e-02 6.269932080000000e-02 1.353430880000000e-02 1.059366500000000e-01 9.214031590000001e-02 4.087471090000000e-01 -2.721238860000000e-01
            4.093441710000000e-01 -2.718408910000000e-01 1.059387990000000e-01 9.215077440000000e-02 6.319647890000001e-02 1.635055820000000e-02 6.394638699999999e-02 1.497579020000000e-02
            1.060864620000000e-01 9.135868720000000e-02 4.087488360000000e-01 -2.721362690000000e-01 6.394027380000000e-02 1.495828960000000e-02 6.334732630000001e-02 2.064938250000000e-02
410658048.0000000000 7.236153319999999e-02 2.364634560000000e-02 7.352122329999999e-02 2.489820740000000e-02 3.340074710000000e-01 -3.597163050000000e-01 1.219370490000000e-01 6.294710950000000e-02
            7.351439370000000e-02 2.488850420000000e-02 7.224738220000000e-02 2.062329110000000e-02 1.219832600000000e-01 6.375523680000000e-02 3.333667430000000e-01 -3.598846140000000e-01
            3.340289860000000e-01 -3.597276590000000e-01 1.219842270000000e-01 6.375084470000000e-02 7.294927590000000e-02 2.401564690000000e-02 7.361365400000000e-02 2.227859790000000e-02
            1.219351250000000e-01 6.296490680000000e-02 3.333756320000000e-01 -3.598803660000000e-01 7.358265840000000e-02 2.228883330000000e-02 7.305615500000000e-02 2.828800220000000e-02
411157631.0000000000 8.395140600000001e-02 2.544987530000000e-02 8.577365150000001e-02 2.696406630000000e-02 2.405381020000000e-01 -4.269808760000000e-01 1.307530850000000e-01 3.274999180000000e-02
            8.578037530000000e-02 2.696532780000000e-02 8.386039169999999e-02 2.244839250000000e-02 1.309562720000000e-01 3.349359020000000e-02 2.398714570000000e-01 -4.269696840000000e-01
            2.405381170000000e-01 -4.269744440000000e-01 1.309811370000000e-01 3.350505030000000e-02 8.496929360000000e-02 2.635414350000000e-02 8.542375560000000e-02 2.426909090000000e-02
            1.307523920000000e-01 3.275590790000000e-02 2.398664840000000e-01 -4.269718100000000e-01 8.542473750000000e-02 2.426486370000000e-02 8.504643330000000e-02 3.062858680000000e-02
411657214.0000000000 9.493165710000000e-02 2.174257980000000e-02 9.758127540000000e-02 2.324709190000000e-02 1.346213880000000e-01 -4.702755180000000e-01 1.328446210000000e-01 2.133393360000000e-03
            9.757904900000000e-02 2.325342280000000e-02 9.487405480000000e-02 1.873066070000000e-02 1.332310370000000e-01 2.807018480000000e-03 1.339739460000000e-01 -4.701107390000000e-01
            1.346215550000000e-01 -4.702645780000000e-01 1.332243610000000e-01 2.815499490000000e-03 9.657541170000000e-02 2.302090010000000e-02 9.677461350000000e-02 2.062810230000000e-02
            1.328543000000000e-01 2.148036170000000e-03 1.339819970000000e-01 -4.701174220000000e-01 9.677520370000001e-02 2.062197240000000e-02 9.662513709999999e-02 2.732220180000000e-02
412156797.0000000000 1.029120030000000e-01 1.345159990000000e-02 1.064275330000000e-01 1.466838210000000e-02 2.228065100000000e-02 -4.878940320000000e-01 1.284879150000000e-01 -2.784654940000000e-02
            1.064220460000000e-01 1.467215190000000e-02 1.028705410000000e-01 1.042068880000000e-02 1.290030380000000e-01 -2.727663870000000e-02 2.168771570000000e-02 -4.875932450000000e-01
            2.226480850000000e-02 -4.878991900000000e-01 1.289903160000000e-01 -2.728192340000000e-02 1.053034430000000e-01 1.496937180000000e-02 1.051598650000000e-01 1.224903440000000e-02
            1.284980070000000e-01 -2.783400870000000e-02 2.167763250000000e-02 -4.876032340000000e-01 1.051596400000000e-01 1.224656050000000e-02 1.053489600000000e-01 1.925909410000000e-02
412656380.0000000000 1.061718490000000e-01 2.461624650000000e-03 1.104877630000000e-01 3.059447300000000e-03 -9.063861610000000e-02 -4.795407540000000e-01 1.178407270000000e-01 -5.616270600000000e-02
            1.105026550000000e-01 3.071270720000000e-03 1.061507300000000e-01 -5.696937500000000e-04 1.184474140000000e-01 -5.573172200000000e-02 -9.114713369999999e-02 -4.790959650000000e-01
            -9.062967510000000e-02 -4.795327450000000e-01 1.184505640000000e-01 -5.572698830000000e-02 1.094124350000000e-01 3.980173300000000e-03 1.088346880000000e-01 9.872869530000001e-04
            1.178291070000000e-01 -5.616509890000000e-02 -9.114574820000000e-02 -4.791047330000000e-01 1.088250130000000e-01 9.835783560000000e-04 1.094595250000000e-01 8.299706650000000e-03
413155963.0000000000 1.040658540000000e-01 -8.812436539999999e-03 1.089406110000000e-01 -9.119535970000000e-03 -1.985653890000000e-01 -4.459307980000000e-01 1.010140100000000e-01 -8.163162720000000e-02
            1.089494060000000e-01 -9.106853280000000e-03 1.040310520000000e-01 -1.186318070000000e-02 1.017298020000000e-01 -8.136256400000000e-02 -1.989375660000000e-01 -4.454044170000000e-01
            -1.985491390000000e-01 -4.459373080000000e-01 1.017040640000000e-01 -8.134247520000000e-02 1.081604080000000e-01 -7.557900290000000e-03 1.070477360000000e-01 -1.072686900000000e-02
            1.010263430000000e-01 -8.162678969999999e-02 -1.989402010000000e-01 -4.453875900000000e-01 1.070514460000000e-01 -1.074394250000000e-02 1.081634880000000e-01 -3.242865320000000e-03
413655546.0000000000 9.696074070000001e-02 -1.796859980000000e-02 1.021400440000000e-01 -1.935422540000000e-02 -2.962283670000000e-01 -3.887670950000000e-01 7.845965440000000e-02 -1.027322260000000e-01
            1.021459110000000e-01 -1.934275960000000e-02 9.693547310000000e-02 -2.101865190000000e-02 7.921410449999999e-02 -1.026157340000000e-01 -2.965011760000000e-01 -3.881478410000000e-01
            -2.962557010000000e-01 -3.887502390000000e-01 7.921963710000000e-02 -1.026251500000000e-01 1.018239090000000e-01 -1.721317820000000e-02 1.001235520000000e-01 -2.047644030000000e-02
            7.847062360000000e-02 -1.027282590000000e-01 -2.965086170000000e-01 -3.881447210000000e-01 1.001283050000000e-01 -2.047409470000000e-02 1.018514170000000e-01 -1.286351350000000e-02
414155129.0000000000 8.635052590000000e-02 -2.292403840000000e-02 9.142637580000000e-02 -2.544297230000000e-02 -3.787929570000000e-01 -3.105715200000000e-01 5.116158430000000e-02 -1.178652600000000e-01
            9.143898180000000e-02 -2.544641580000000e-02 8.630831810000000e-02 -2.597109780000000e-02 5.190860380000000e-02 -1.179598030000000e-01 -3.789022220000000e-01 -3.098980300000000e-01
            -3.787785440000000e-01 -3.105615460000000e-01 5.190164920000000e-02 -1.179459320000000e-01 9.179393430000000e-02 -2.288319450000000e-02 8.945493900000000e-02 -2.610015510000000e-02
            5.115674430000000e-02 -1.178656980000000e-01 -3.788908000000000e-01 -3.099032960000000e-01 8.945172150000000e-02 -2.609258760000000e-02 9.182982850000000e-02 -1.851591340000000e-02
414654712.0000000000 7.444873460000000e-02 -2.242049170000000e-02 7.908255150000000e-02 -2.602915780000000e-02 -4.416201850000000e-01 -2.148970700000000e-01 2.075387990000000e-02 -1.256395730000000e-01
            7.909147430000001e-02 -2.603956940000000e-02 7.440986140000000e-02 -2.548126390000000e-02 2.145542780000000e-02 -1.258828040000000e-01 -4.415697550000000e-01 -2.142184080000000e-01
            -4.416070850000000e-01 -2.148857190000000e-01 2.146441660000000e-02 -1.258960460000000e-01 8.027306839999999e-02 -2.326363780000000e-02 7.728467280000000e-02 -2.627330290000000e-02
            2.074328110000000e-02 -1.256346050000000e-01 -4.415608340000000e-01 -2.142200410000000e-01 7.728029350000000e-02 -2.627972990000000e-02 8.030858710000000e-02 -1.890547240000000e-02
415154295.0000000000 6.395866400000000e-02 -1.642403680000000e-02 6.780033210000000e-02 -2.089675160000000e-02 -4.807802640000000e-01 -1.064380090000000e-01 -1.046990980000000e-02 -1.252263250000000e-01
            6.779044590000000e-02 -2.091146770000000e-02 6.389674319999999e-02 -1.946728380000000e-02 -9.876943660000000e-03 -1.256449770000000e-01 -4.805725440000000e-01 -1.058058600000000e-01
            -4.807694140000000e-01 -1.064356070000000e-01 -9.872004170000000e-03 -1.256553090000000e-01 6.986679000000000e-02 -1.818290600000000e-02 6.628025920000000e-02 -2.082987030000000e-02
            -1.046501490000000e-02 -1.252302710000000e-01 -4.805633670000000e-01 -1.057870530000000e-01 6.627560330000000e-02 -2.083135800000000e-02 6.992692690000001e-02 -1.383557690000000e-02
415653878.0000000000 5.728948860000000e-02 -6.116221200000000e-03 6.015738050000000e-02 -1.113828440000000e-02 -4.933404240000000e-01 8.927593680000000e-03 -4.004900810000000e-02 -1.168030910000000e-01
            6.014584230000000e-02 -1.112980150000000e-02 5.723245890000000e-02 -9.149318060000000e-03 -3.956079360000000e-02 -1.173461000000000e-01 -4.930054030000000e-01 9.509200820000001e-03
            -4.933538930000000e-01 8.920329899999999e-03 -3.957066640000000e-02 -1.173627230000000e-01 6.304239730000000e-02 -8.761712470000000e-03 5.895531150000000e-02 -1.089104230000000e-02
            -4.004488550000000e-02 -1.168036950000000e-01 -4.929927090000000e-01 9.517666290000001e-03 5.894273900000000e-02 -1.090897540000000e-02 6.311052289999999e-02 -4.430858390000000e-03
416153461.0000000000 5.613489080000000e-02 6.255935540000000e-03 5.791214080000000e-02 1.035247160000000e-03 -4.780534810000000e-01 1.244547920000000e-01 -6.570431940000000e-02 -1.014621490000000e-01
            5.790288160000000e-02 1.018116460000000e-03 5.606258410000000e-02 3.215257060000000e-03 -6.537421979999999e-02 -1.020973850000000e-01 -4.775689740000000e-01 1.249413960000000e-01
            -4.780379930000000e-01 1.244383620000000e-01 -6.538352990000000e-02 -1.020959630000000e-01 6.151547910000000e-02 2.811490350000000e-03 5.702826990000000e-02 1.304272320000000e-03
            -6.570663920000000e-02 -1.014492920000000e-01 -4.775624200000000e-01 1.249331460000000e-01 5.701455660000000e-02 1.305590080000000e-03 6.156512320000000e-02 7.147958710000000e-03
416653044.0000000000 6.077853590000000e-02 1.783843650000000e-02 6.157498910000000e-02 1.276252310000000e-02 -4.355240270000000e-01 2.330888960000000e-01 -8.593659140000000e-02 -8.096094950000000e-02
            6.157231900000000e-02 1.276748250000000e-02 6.076076640000000e-02 1.481740290000000e-02 -8.576183370000000e-02 -8.161751110000000e-02 -4.349504450000000e-01 2.334392860000000e-01
            -4.355250390000000e-01 2.330735950000000e-01 -8.576528540000000e-02 -8.163302300000000e-02 6.560684140000000e-02 1.377959040000000e-02 6.095628440000000e-02 1.299310920000000e-02
            -8.592587340000001e-02 -8.094831140000000e-02 -4.349493300000000e-01 2.334352350000000e-01 6.095764690000000e-02 1.300874740000000e-02 6.565765480000001e-02 1.808201090000000e-02
417152627.0000000000 7.024717179999999e-02 2.599480560000000e-02 7.019063870000000e-02 2.137865970000000e-02 -3.684814030000000e-01 3.281875670000000e-01 -1.000690250000000e-01 -5.723041790000000e-02
            7.018485830000000e-02 2.137836250000000e-02 7.021388540000000e-02 2.299968220000000e-02 -1.000425720000000e-01 -5.791519380000000e-02 -3.678200680000000e-01 3.284237110000000e-01
            -3.684946030000000e-01 3.282058330000000e-01 -1.000629210000000e-01 -5.791180300000000e-02 7.443195910000000e-02 2.153051830000000e-02 6.974716559999999e-02 2.148189690000000e-02
            -1.000605320000000e-01 -5.723519320000000e-02 -3.678240450000000e-01 3.284077490000000e-01 6.974377280000001e-02 2.149425010000000e-02 7.443072840000001e-02 2.580783540000000e-02
417652210.0000000000 8.230811790000001e-02 2.898254220000000e-02 8.169945689999999e-02 2.498202950000000e-02 -2.812729320000000e-01 4.043735430000000e-01 -1.081412860000000e-01 -3.198115660000000e-02
            8.169228950000000e-02 2.499815420000000e-02 8.230601100000000e-02 2.598163420000000e-02 -1.082996760000000e-01 -3.264441340000000e-02 -2.805792450000000e-01 4.044437350000000e-01
            -2.812685160000000e-01 4.043725120000000e-01 -1.083159350000000e-01 -3.265195830000000e-02 8.582170390000000e-02 2.428457760000000e-02 8.134667769999999e-02 2.494920600000000e-02
            -1.081564010000000e-01 -3.198970880000000e-02 -2.805851620000000e-01 4.044392660000000e-01 8.134616220000000e-02 2.493391620000000e-02 8.580853880000000e-02 2.856085960000000e-02
418151793.0000000000 9.432182579999999e-02 2.623722860000000e-02 9.343320300000001e-02 2.294899390000000e-02 -1.793183210000000e-01 4.577047780000000e-01 -1.105660260000000e-01 -6.437709570000000e-03
            9.342229100000000e-02 2.294884420000000e-02 9.432345640000001e-02 2.323629250000000e-02 -1.108760690000000e-01 -7.044713210000000e-03 -1.786436130000000e-01 4.576029480000000e-01
            -1.793205660000000e-01 4.577100140000000e-01 -1.108824460000000e-01 -7.031918960000000e-03 9.721577369999999e-02 2.150515740000000e-02 9.311423369999999e-02 2.273598190000000e-02
            -1.105800000000000e-01 -6.440086660000000e-03 -1.786360110000000e-01 4.576048040000000e-01 9.311425110000000e-02 2.273050250000000e-02 9.717636089999999e-02 2.577724240000000e-02
418651376.0000000000 1.037311060000000e-01 1.849179660000000e-02 1.028533670000000e-01 1.587196430000000e-02 -6.852012840000000e-02 4.858945440000000e-01 -1.077025420000000e-01 1.858089860000000e-02
            1.028478440000000e-01 1.586769310000000e-02 1.037621600000000e-01 1.548783200000000e-02 -1.081132610000000e-01 1.808270980000000e-02 -6.787072299999999e-02 4.856414800000000e-01
            -6.851869970000000e-02 4.858986660000000e-01 -1.081046960000000e-01 1.806695340000000e-02 1.060687650000000e-01 1.380875650000000e-02 1.024947420000000e-01 1.549003170000000e-02
            -1.076944470000000e-01 1.858130380000000e-02 -6.788821060000000e-02 4.856533470000000e-01 1.024928470000000e-01 1.548723320000000e-02 1.059991850000000e-01 1.812069950000000e-02
419150959.0000000000 1.086804480000000e-01 7.489244440000000e-03 1.080099080000000e-01 5.344896450000000e-03 4.522848210000000e-02 4.880986450000000e-01 -9.965697770000000e-02 4.233204910000000e-02
            1.080156550000000e-01 5.337524380000000e-03 1.087040120000000e-01 4.452275500000000e-03 -1.001760430000000e-01 4.195536650000000e-02 4.579377640000000e-02 4.877005460000000e-01
            4.522815820000000e-02 4.881080140000000e-01 -1.001759750000000e-01 4.195556730000000e-02 1.105398880000000e-01 2.959325090000000e-03 1.075453750000000e-01 4.856270830000000e-03
            -9.966207400000000e-02 4.233327010000000e-02 4.579193120000000e-02 4.877113660000000e-01 1.075525350000000e-01 4.840519170000000e-03 1.104516510000000e-01 7.253914500000000e-03
419650542.0000000000 1.081903590000000e-01 -4.478536110000000e-03 1.078601750000000e-01 -6.306320310000000e-03 1.562895960000000e-01 4.645793750000000e-01 -8.654635350000001e-02 6.393821869999999e-02
            1.078552300000000e-01 -6.312558890000000e-03 1.082340180000000e-01 -7.517111770000000e-03 -8.713502369999999e-02 6.368786490000000e-02 1.567451670000000e-01 4.640607280000000e-01
            1.562831730000000e-01 4.645873090000000e-01 -8.715087250000000e-02 6.370623730000000e-02 1.096414340000000e-01 -8.810800470000000e-03 1.072580400000000e-01 -6.903360670000000e-03
            -8.654580069999999e-02 6.394635030000000e-02 1.567377630000000e-01 4.640595340000000e-01 1.072669700000000e-01 -6.892985590000000e-03 1.095722020000000e-01 -4.475887690000000e-03
420150125.0000000000 1.024407900000000e-01 -1.488431120000000e-02 1.024502490000000e-01 -1.666515450000000e-02 2.592467520000000e-01 4.165562430000000e-01 -6.855060600000000e-02 8.220252540000000e-02
            1.024567800000000e-01 -1.664371930000000e-02 1.024960950000000e-01 -1.792980930000000e-02 -6.919040090000000e-02 8.210910790000001e-02 2.595857260000000e-01 4.159414340000000e-01
            2.592479480000000e-01 4.165460100000000e-01 -6.919303200000000e-02 8.209402900000000e-02 1.035340550000000e-01 -1.902149960000000e-02 1.017028230000000e-01 -1.725083020000000e-02
            -6.855686620000000e-02 8.221672030000000e-02 2.595942390000000e-01 4.159430630000000e-01 1.016910180000000e-01 -1.726254310000000e-02 1.034679360000000e-01 -1.467270940000000e-02
420649708.0000000000 9.266209559999999e-02 -2.154900310000000e-02 9.291273890000000e-02 -2.343860620000000e-02 3.490221470000000e-01 3.461688690000000e-01 -4.633582770000000e-02 9.575139950000000e-02
            9.291588150000001e-02 -2.344614000000000e-02 9.269953359999999e-02 -2.460445450000000e-02 -4.698598630000000e-02 9.578548319999999e-02 3.491807820000000e-01 3.454941460000000e-01
            3.490024530000000e-01 3.461660590000000e-01 -4.699232430000000e-02 9.580392350000000e-02 9.342895320000000e-02 -2.547717780000000e-02 9.196954230000000e-02 -2.402778250000000e-02
            -4.634193570000000e-02 9.575962050000000e-02 3.491928780000000e-01 3.454952240000000e-01 9.197083570000000e-02 -2.403350570000000e-02 9.336080319999999e-02 -2.110777590000000e-02
421149291.0000000000 8.092964690000000e-02 -2.301881750000000e-02 8.127728460000000e-02 -2.511301590000000e-02 4.207108250000000e-01 2.565475940000000e-01 -2.119874790000000e-02 1.032163580000000e-01
            8.127655400000000e-02 -2.512790240000000e-02 8.095442230000000e-02 -2.609417800000000e-02 -2.181186350000000e-02 1.034254020000000e-01 4.207325020000000e-01 2.558469140000000e-01
            4.207059070000000e-01 2.565503370000000e-01 -2.180779470000000e-02 1.034158730000000e-01 8.135854540000000e-02 -2.669058230000000e-02 8.014484510000000e-02 -2.564288180000000e-02
            -2.119512060000000e-02 1.032210710000000e-01 4.207358100000000e-01 2.558385200000000e-01 8.013178050000000e-02 -2.564772700000000e-02 8.130568900000000e-02 -2.231003850000000e-02
421648874.0000000000 6.983640570000001e-02 -1.891456490000000e-02 7.009693120000000e-02 -2.124192450000000e-02 4.700169990000000e-01 1.519991880000000e-01 4.982519440000000e-03 1.037734340000000e-01
            7.008417740000000e-02 -2.124315960000000e-02 6.983865760000001e-02 -2.197660660000000e-02 4.466383570000000e-03 1.041185060000000e-01 4.698578500000000e-01 1.513082990000000e-01
            4.700105080000000e-01 1.520100640000000e-01 4.468711360000000e-03 1.041133770000000e-01 6.992820470000000e-02 -2.226193500000000e-02 6.876756990000001e-02 -2.162736240000000e-02
            5.012686660000000e-03 1.037898910000000e-01 4.698709270000000e-01 1.513092190000000e-01 6.877256800000001e-02 -2.161567890000000e-02 6.988896220000000e-02 -1.789856970000000e-02
422148457.0000000000 6.192758230000000e-02 -1.008258560000000e-02 6.195695130000000e-02 -1.255844120000000e-02 4.935047050000000e-01 3.805987800000000e-02 3.002652330000000e-02 9.737539500000000e-02
            6.196220630000000e-02 -1.256535920000000e-02 6.193530360000000e-02 -1.313668280000000e-02 2.959602610000000e-02 9.785008710000000e-02 4.932045940000000e-01 3.743097220000000e-02
            4.935083590000000e-01 3.807606340000000e-02 2.959304540000000e-02 9.784849100000000e-02 6.171692090000000e-02 -1.300450820000000e-02 6.048063430000000e-02 -1.274922580000000e-02
            3.002600180000000e-02 9.737985090000000e-02 4.931988120000000e-01 3.743305730000000e-02 6.049004040000000e-02 -1.276156780000000e-02 6.168919030000000e-02 -8.672913569999999e-03
422648040.0000000000 5.909885580000000e-02 1.415752960000000e-03 5.881440180000000e-02 -1.071055630000000e-03 4.892301330000000e-01 -7.871529870000001e-02 5.181761740000000e-02 8.490710610000000e-02
            5.879842900000000e-02 -1.075169620000000e-03 5.910311580000000e-02 -1.622642960000000e-03 5.152211630000000e-02 8.544898810000000e-02 4.887881540000000e-01 -7.925647880000000e-02
            4.892288330000000e-01 -7.870405040000000e-02 5.152645250000000e-02 8.544818720000000e-02 5.865407160000000e-02 -1.005505700000000e-03 5.720976970000000e-02 -1.021356360000000e-03
            5.182361500000000e-02 8.491276790000001e-02 4.887832000000000e-01 -7.924493589999999e-02 5.721909960000000e-02 -1.015440450000000e-03 5.863732380000000e-02 3.329872650000000e-03
423147623.0000000000 6.202485380000000e-02 1.284975140000000e-02 6.138449120000000e-02 1.055526400000000e-02 4.571761830000000e-01 -1.912284240000000e-01 6.891717479999999e-02 6.791816450000000e-02
            6.139623920000000e-02 1.055469950000000e-02 6.203614030000000e-02 9.829089520000001e-03 6.876299460000000e-02 6.849256790000000e-02 4.565769280000000e-01 -1.916557010000000e-01
            4.571542380000000e-01 -1.912026640000000e-01 6.877449369999999e-02 6.850450230000001e-02 6.147676950000000e-02 1.106160020000000e-02 5.974332750000000e-02 1.090028730000000e-02
            6.891079500000000e-02 6.792513829999999e-02 4.565903580000000e-01 -1.916519420000000e-01 5.974044400000000e-02 1.088473080000000e-02 6.140809410000000e-02 1.536785000000000e-02
423647206.0000000000 6.994688420000000e-02 2.156237470000000e-02 6.907399879999999e-02 1.959516120000000e-02 3.992588500000000e-01 -2.926466860000000e-01 8.069992970000001e-02 4.822051340000000e-02
            6.908037430000000e-02 1.959617370000000e-02 6.999243900000000e-02 1.854722260000000e-02 8.068577200000000e-02 4.880550000000000e-02 3.986010690000000e-01 -2.929316040000000e-01
            3.992568000000000e-01 -2.926425540000000e-01 8.067615520000000e-02 4.880471270000000e-02 6.944264090000000e-02 2.045043090000000e-02 6.743734450000000e-02 2.023473170000000e-02
            8.069328110000000e-02 4.823164200000000e-02 3.986013050000000e-01 -2.929241860000000e-01 6.744456720000000e-02 2.024016630000000e-02 6.936574210000000e-02 2.473014200000000e-02
424146789.0000000000 8.096918180000000e-02 2.552811720000000e-02 8.002579820000000e-02 2.400254880000000e-02 3.193637910000000e-01 -3.770538350000000e-01 8.729370750000000e-02 2.741593910000000e-02
            8.003079300000000e-02 2.401617680000000e-02 8.103288850000000e-02 2.250478500000000e-02 8.741645219999999e-02 2.796039700000000e-02 3.186473020000000e-01 -3.771790460000000e-01
            3.193475420000000e-01 -3.770388060000000e-01 8.741192400000000e-02 2.796370350000000e-02 8.071315790000000e-02 2.512185330000000e-02 7.847366030000000e-02 2.497027900000000e-02
            8.728715750000000e-02 2.740239860000000e-02 3.186498720000000e-01 -3.771807590000000e-01 7.847254220000000e-02 2.497260170000000e-02 8.061392380000000e-02 2.939523770000000e-02
424646372.0000000000 9.253632370000001e-02 2.392259600000000e-02 9.170123340000000e-02 2.288615990000000e-02 2.225230190000000e-01 -4.399993390000000e-01 8.912930480000000e-02 6.563015370000000e-03
            9.171104270000000e-02 2.288053330000000e-02 9.259705620000000e-02 2.091239910000000e-02 8.937167920000000e-02 7.056587960000000e-03 2.218147560000000e-01 -4.399644620000000e-01
            2.225258540000000e-01 -4.400054620000000e-01 8.937579690000000e-02 7.066263110000000e-03 9.273439640000000e-02 2.415878930000000e-02 9.032901850000000e-02 2.417315960000000e-02
            8.913496070000000e-02 6.563412990000000e-03 2.217983580000000e-01 -4.399595980000000e-01 9.033967480000001e-02 2.414707230000000e-02 9.258314590000000e-02 2.843867110000000e-02
425145955.0000000000 1.020326590000000e-01 1.721260800000000e-02 1.015427980000000e-01 1.660106560000000e-02 1.144786470000000e-01 -4.786174490000000e-01 8.672468960000000e-02 -1.362404950000000e-02
            1.015308920000000e-01 1.660877820000000e-02 1.021277640000000e-01 1.420745670000000e-02 8.705641050000000e-02 -1.319341980000000e-02 1.137825000000000e-01 -4.784286620000000e-01
            1.144639780000000e-01 -4.786151230000000e-01 8.705445560000000e-02 -1.320416630000000e-02 1.028619510000000e-01 1.797689510000000e-02 1.004074290000000e-01 1.812875090000000e-02
            8.671346130000000e-02 -1.361340620000000e-02 1.137814850000000e-01 -4.784202190000000e-01 1.004115440000000e-01 1.812945600000000e-02 1.027087820000000e-01 2.225916090000000e-02
425645538.0000000000 1.074266980000000e-01 6.931326780000000e-03 1.074413480000000e-01 6.563844260000000e-03 1.038201400000000e-03 -4.914605760000000e-01 8.026489100000000e-02 -3.268928230000000e-02
            1.074536630000000e-01 6.572540080000000e-03 1.075293860000000e-01 3.897029780000000e-03 8.069796810000000e-02 -3.235184900000000e-02 4.134680710000000e-04 -4.911138090000000e-01
            1.019145340000000e-03 -4.914819060000000e-01 8.070243290000000e-02 -3.235948380000000e-02 1.090506750000000e-01 8.016788699999999e-03 1.066281480000000e-01 8.294692320000000e-03
            8.027280480000000e-02 -3.267662240000000e-02 4.289741410000000e-04 -4.911078960000000e-01 1.066259630000000e-01 8.310128250000000e-03 1.088867790000000e-01 1.231582790000000e-02
426145121.0000000000 1.075762480000000e-01 -4.721168300000000e-03 1.081942350000000e-01 -5.070262970000000e-03 -1.120349920000000e-01 -4.783489140000000e-01 6.987842700000001e-02 -5.004268800000000e-02
            1.081899490000000e-01 -5.057298070000000e-03 1.076972550000000e-01 -7.760823730000000e-03 7.037176040000000e-02 -4.982719800000000e-02 -1.125690010000000e-01 -4.778635990000000e-01
            -1.120513450000000e-01 -4.783495860000000e-01 7.035394780000000e-02 -4.982485270000000e-02 1.101014030000000e-01 -3.549743330000000e-03 1.077508690000000e-01 -3.196489400000000e-03
            6.988146310000000e-02 -5.004795430000000e-02 -1.125620020000000e-01 -4.778655630000000e-01 1.077549920000000e-01 -3.214303600000000e-03 1.099379230000000e-01 7.749744680000000e-04
426644704.0000000000 1.024484990000000e-01 -1.526331910000000e-02 1.036295290000000e-01 -1.585535200000000e-02 -2.192747050000000e-01 -4.400265990000000e-01 5.559586690000000e-02 -6.483516189999999e-02
            1.036203340000000e-01 -1.585337600000000e-02 1.025458870000000e-01 -1.831455030000000e-02 5.612374430000000e-02 -6.473602190000000e-02 -2.196666060000000e-01 -4.394101160000000e-01
            -2.192704780000000e-01 -4.400250830000000e-01 5.612528780000000e-02 -6.475159530000001e-02 1.058635180000000e-01 -1.427282160000000e-02 1.035733490000000e-01 -1.396044160000000e-02
            5.560750100000000e-02 -6.484519440000000e-02 -2.196581640000000e-01 -4.394152180000000e-01 1.035807030000000e-01 -1.395126900000000e-02 1.056895110000000e-01 -9.917148680000000e-03
427144287.0000000000 9.301052329999999e-02 -2.243112550000000e-02 9.463926860000001e-02 -2.348643860000000e-02 -3.153276580000000e-01 -3.781874310000000e-01 3.782701610000000e-02 -7.593469899999999e-02
            9.461070730000000e-02 -2.346848640000000e-02 9.310079320000000e-02 -2.549454450000000e-02 3.837731680000000e-02 -7.594371260000000e-02 -3.155903150000000e-01 -3.774967160000000e-01
            -3.153328510000000e-01 -3.781738100000000e-01 3.837726790000000e-02 -7.596281539999999e-02 9.724007649999999e-02 -2.185777230000000e-02 9.500247219999999e-02 -2.165798250000000e-02
            3.784942890000000e-02 -7.593227430000000e-02 -3.155656360000000e-01 -3.775061220000000e-01 9.499879210000001e-02 -2.164527700000000e-02 9.707416290000000e-02 -1.750137090000000e-02
427643870.0000000000 8.118924830000000e-02 -2.456624850000000e-02 8.303709369999999e-02 -2.623566120000000e-02 -3.951702950000000e-01 -2.955485040000000e-01 1.754829500000000e-02 -8.215665370000000e-02
            8.303848940000000e-02 -2.623406650000000e-02 8.127269790000000e-02 -2.764298970000000e-02 1.804046620000000e-02 -8.231793540000000e-02 -3.952589360000000e-01 -2.948207950000000e-01
            -3.951651130000000e-01 -2.955551190000000e-01 1.805046430000000e-02 -8.231666660000000e-02 8.611060199999999e-02 -2.466505740000000e-02 8.381074880000000e-02 -2.459568880000000e-02
            1.754287770000000e-02 -8.214125870000000e-02 -3.952413060000000e-01 -2.948202970000000e-01 8.380768490000000e-02 -2.459535810000000e-02 8.596025070000000e-02 -2.031549610000000e-02
428143453.0000000000 6.953215030000000e-02 -2.106264600000000e-02 7.136334760000000e-02 -2.340833740000000e-02 -4.540905520000000e-01 -1.960199270000000e-01 -3.748657670000000e-03 -8.267939090000000e-02
            7.137004240000000e-02 -2.341831450000000e-02 6.961993240000000e-02 -2.412434070000000e-02 -3.324349760000000e-03 -8.295237220000000e-02 -4.540123000000000e-01 -1.952898580000000e-01
            -4.540982300000000e-01 -1.960203040000000e-01 -3.309933540000000e-03 -8.297133490000000e-02 7.492082030000000e-02 -2.201687150000000e-02 7.246177110000000e-02 -2.205436510000000e-02
            -3.771352650000000e-03 -8.266853070000001e-02 -4.540118210000000e-01 -1.952983170000000e-01 7.246025510000000e-02 -2.204769260000000e-02 7.478977019999999e-02 -1.764056470000000e-02
428643036.0000000000 6.067262750000000e-02 -1.251240660000000e-02 6.222011680000000e-02 -1.551723970000000e-02 -4.882127100000000e-01 -8.474558030000000e-02 -2.413797910000000e-02 -7.734150049999999e-02
            6.222215790000000e-02 -1.551001190000000e-02 6.074323390000000e-02 -1.556114040000000e-02 -2.381012490000000e-02 -7.770132590000001e-02 -4.879801380000000e-01 -8.404237400000000e-02
            -4.882341540000000e-01 -8.473417890000000e-02 -2.380683820000000e-02 -7.772160480000000e-02 6.627814260000001e-02 -1.438710490000000e-02 6.356021860000000e-02 -1.452199400000000e-02
            -2.414423500000000e-02 -7.733290880000000e-02 -4.879720370000000e-01 -8.404404280000000e-02 6.357780620000000e-02 -1.451867580000000e-02 6.614047800000000e-02 -1.003766840000000e-02
429142619.0000000000 5.668838070000000e-02 -7.527560980000000e-04 5.771684620000000e-02 -4.243821970000000e-03 -4.950404430000000e-01 3.198415770000000e-02 -4.177738170000000e-02 -6.684199610000000e-02
            5.772956230000000e-02 -4.261709510000000e-03 5.675400100000000e-02 -3.780226870000000e-03 -4.152585520000000e-02 -6.727681240000000e-02 -4.946189430000000e-01 3.260630950000000e-02
            -4.950131010000000e-01 3.198216080000000e-02 -4.153366870000000e-02 -6.729136380000000e-02 6.222151340000000e-02 -3.584475610000000e-03 5.918471530000000e-02 -3.685380450000000e-03
            -4.177041880000000e-02 -6.685160330000001e-02 -4.946138720000000e-01 3.260310140000000e-02 5.918864330000000e-02 -3.683542550000000e-03 6.209455920000000e-02 7.419259370000000e-04
429642202.0000000000 5.852517640000000e-02 1.156831220000000e-02 5.890846710000000e-02 7.795489810000000e-03 -4.737382360000000e-01 1.471485580000000e-01 -5.528226300000000e-02 -5.257293250000000e-02
            5.892746560000000e-02 7.792861950000000e-03 5.861494060000000e-02 8.564020520000000e-03 -5.517880200000000e-02 -5.306457560000000e-02 -4.731780750000000e-01 1.476597480000000e-01
            -4.737104490000000e-01 1.471680340000000e-01 -5.518314170000000e-02 -5.305630720000000e-02 6.375969600000000e-02 7.865725780000001e-03 6.041951780000000e-02 7.944519100000000e-03
            -5.528218730000000e-02 -5.257447070000000e-02 -4.731875350000000e-01 1.476578040000000e-01 6.041431570000000e-02 7.936865229999999e-03 6.361949470000000e-02 1.215346660000000e-02
430141785.0000000000 6.579983640000001e-02 2.167930280000000e-02 6.549111589999999e-02 1.787977870000000e-02 -4.256436880000000e-01 2.537363950000000e-01 -6.413816390000000e-02 -3.621188900000000e-02
            6.548854100000000e-02 1.787170190000000e-02 6.589713649999999e-02 1.868011100000000e-02 -6.413136150000000e-02 -3.669476480000000e-02 -4.249910140000000e-01 2.540885420000000e-01
            -4.256333680000000e-01 2.537205950000000e-01 -6.412658680000000e-02 -3.668277010000000e-02 7.051047010000000e-02 1.720080980000000e-02 6.687781430000000e-02 1.762405860000000e-02
            -6.412808730000000e-02 -3.623522220000000e-02 -4.249840560000000e-01 2.540914380000000e-01 6.687395770000000e-02 1.761820920000000e-02 7.035765410000000e-02 2.150109900000000e-02
430641368.0000000000 7.678340850000000e-02 2.736029280000000e-02 7.583797180000000e-02 2.373163680000000e-02 -3.539751000000000e-01 3.454411280000000e-01 -6.845939700000001e-02 -1.927619140000000e-02
            7.584635760000000e-02 2.372964330000000e-02 7.689545610000000e-02 2.433113930000000e-02 -6.858287800000000e-02 -1.974084580000000e-02 -3.532650030000000e-01 3.456540980000000e-01
            -3.539836950000000e-01 3.454470670000000e-01 -6.856978380000001e-02 -1.972735900000000e-02 8.084741880000000e-02 2.229536060000000e-02 7.706010530000000e-02 2.313704460000000e-02
            -6.847193470000000e-02 -1.929179990000000e-02 -3.532495600000000e-01 3.456520820000000e-01 7.704966650000000e-02 2.312943280000000e-02 8.065696980000001e-02 2.655523670000000e-02
431140951.0000000000 8.900989280000000e-02 2.743303840000000e-02 8.759072449999999e-02 2.418627670000000e-02 -2.633743520000000e-01 4.173294800000000e-01 -6.888880779999999e-02 -2.795579870000000e-03
            8.757810680000000e-02 2.421299000000000e-02 8.914883110000001e-02 2.443087900000000e-02 -6.910861729999999e-02 -3.189966860000000e-03 -2.626273520000000e-01 4.173618330000000e-01
            -2.633661980000000e-01 4.173417310000000e-01 -6.908942680000001e-02 -3.171793620000000e-03 9.233908400000000e-02 2.195933730000000e-02 8.852856880000000e-02 2.333344170000000e-02
            -6.890924820000000e-02 -2.797513350000000e-03 -2.626154210000000e-01 4.173507480000000e-01 8.854388570000001e-02 2.333997650000000e-02 9.211375690000000e-02 2.624265950000000e-02
431640534.0000000000 9.982949600000000e-02 2.210938040000000e-02 9.809624209999999e-02 1.935076500000000e-02 -1.592657690000000e-01 4.659842220000000e-01 -6.604196810000000e-02 1.275676240000000e-02
            9.810412180000000e-02 1.936412150000000e-02 9.999356750000001e-02 1.908831660000000e-02 -6.632843490000000e-02 1.242652060000000e-02 -1.585187020000000e-01 4.658307020000000e-01
            -1.592605020000000e-01 4.659753910000000e-01 -6.632325080000000e-02 1.243106920000000e-02 1.023780760000000e-01 1.638102110000000e-02 9.878553210000000e-02 1.828813870000000e-02
            -6.605012790000001e-02 1.274421900000000e-02 -1.585355350000000e-01 4.658293660000000e-01 9.878086870000000e-02 1.828637920000000e-02 1.021236140000000e-01 2.069232420000000e-02
432140117.0000000000 1.070379980000000e-01 1.262577790000000e-02 1.051975400000000e-01 1.037066950000000e-02 -4.741023950000000e-02 4.893891170000000e-01 -6.025600160000000e-02 2.708555450000000e-02
            1.051984180000000e-01 1.037093420000000e-02 1.071985220000000e-01 9.602793230000000e-03 -6.059355800000000e-02 2.684740430000000e-02 -4.674194600000000e-02 4.890911470000000e-01
            -4.740433150000000e-02 4.893945990000000e-01 -6.059492020000000e-02 2.683965720000000e-02 1.087872460000000e-01 6.846392310000000e-03 1.055872290000000e-01 9.189201160000000e-03
            -6.026068630000000e-02 2.710183970000000e-02 -4.675383900000000e-02 4.890880010000000e-01 1.055936510000000e-01 9.183901899999999e-03 1.085177110000000e-01 1.116436970000000e-02
432639700.0000000000 1.092209050000000e-01 1.071821520000000e-03 1.074657970000000e-01 -7.467188580000000e-04 6.646846810000000e-02 4.868530320000000e-01 -5.168020840000000e-02 3.995248780000000e-02
            1.074521290000000e-01 -7.668147420000000e-04 1.093878480000000e-01 -1.940566740000000e-03 -5.205829950000000e-02 3.981248890000000e-02 6.704082430000000e-02 4.863986030000000e-01
            6.647909940000001e-02 4.868423130000000e-01 -5.205624370000000e-02 3.980057980000000e-02 1.101966650000000e-01 -4.630875910000000e-03 1.075343750000000e-01 -2.011521050000000e-03
            -5.166461480000000e-02 3.996062420000000e-02 6.705382590000000e-02 4.864033160000000e-01 1.075407320000000e-01 -2.012074700000000e-03 1.099301940000000e-01 -3.148964110000000e-04
433139283.0000000000 1.060216910000000e-01 -1.006829160000000e-02 1.044321750000000e-01 -1.162492450000000e-02 1.768010800000000e-01 4.586586600000000e-01 -4.027326950000000e-02 5.082350160000000e-02
            1.044437580000000e-01 -1.162997730000000e-02 1.061902000000000e-01 -1.312616420000000e-02 -4.066883410000000e-02 5.073996330000000e-02 1.772493000000000e-01 4.580773320000000e-01
            1.767974060000000e-01 4.586557540000000e-01 -4.066872780000000e-02 5.074843550000000e-02 1.062356480000000e-01 -1.561310650000000e-02 1.042379820000000e-01 -1.293301000000000e-02
            -4.025511600000000e-02 5.081322490000000e-02 1.772541260000000e-01 4.580699760000000e-01 1.042245940000000e-01 -1.292206520000000e-02 1.059753070000000e-01 -1.127504660000000e-02
433638866.0000000000 9.818412320000000e-02 -1.850289460000000e-02 9.678127580000000e-02 -1.994392200000000e-02 2.781440360000000e-01 4.060476960000000e-01 -2.623488020000000e-02 5.879797670000000e-02
            9.679547680000000e-02 -1.993857420000000e-02 9.836165180000001e-02 -2.156884060000000e-02 -2.666065090000000e-02 5.884986970000000e-02 2.784504040000000e-01 4.053785560000000e-01
            2.781378910000000e-01 4.060458380000000e-01 -2.664381680000000e-02 5.884346390000000e-02 9.767729579999999e-02 -2.376445060000000e-02 9.630786190000000e-02 -2.119902640000000e-02
            -2.625330490000000e-02 5.881610110000000e-02 2.784618400000000e-01 4.053908610000000e-01 9.630860080000000e-02 -2.121240010000000e-02 9.741283040000000e-02 -1.939485200000000e-02
434138449.0000000000 8.741875170000001e-02 -2.240354380000000e-02 8.613758140000000e-02 -2.385758960000000e-02 3.652392290000000e-01 3.313098010000000e-01 -1.025995720000000e-02 6.298081949999999e-02
            8.614447620000000e-02 -2.385294100000000e-02 8.756926869999999e-02 -2.547781090000000e-02 -1.064058730000000e-02 6.311043760000000e-02 3.654149430000000e-01 3.305678590000000e-01
            3.652411940000000e-01 3.313007630000000e-01 -1.065369490000000e-02 6.312039479999999e-02 8.619625170000000e-02 -2.721966680000000e-02 8.542205340000000e-02 -2.504837840000000e-02
            -1.025561920000000e-02 6.297900580000000e-02 3.654052200000000e-01 3.305764440000000e-01 8.542366840000000e-02 -2.503507950000000e-02 8.596796470000000e-02 -2.285005420000000e-02
434638032.0000000000 7.607824090000000e-02 -2.085351310000000e-02 7.483142960000000e-02 -2.239286130000000e-02 4.331503320000000e-01 2.378574770000000e-01 6.445592040000000e-03 6.257064760000000e-02
            7.483104100000000e-02 -2.237679840000000e-02 7.622040860000000e-02 -2.390799040000000e-02 6.122916900000000e-03 6.279447130000000e-02 4.331230510000000e-01 2.371083840000000e-01
            4.331414620000000e-01 2.378728490000000e-01 6.120654920000000e-03 6.280361280000001e-02 7.423650140000000e-02 -2.508357420000000e-02 7.386458470000000e-02 -2.345491880000000e-02
            6.444709350000000e-03 6.255830079999999e-02 4.331312670000000e-01 2.370983980000000e-01 7.386993250000000e-02 -2.345714610000000e-02 7.401195580000000e-02 -2.070102500000000e-02
435137615.0000000000 6.678501700000000e-02 -1.415053060000000e-02 6.541972450000000e-02 -1.577796860000000e-02 4.775354240000000e-01 1.304357880000000e-01 2.230963290000000e-02 5.735665710000000e-02
            6.544398749999999e-02 -1.578225300000000e-02 6.693710320000000e-02 -1.722223490000000e-02 2.205540830000000e-02 5.768442540000000e-02 4.773390820000000e-01 1.297040670000000e-01
            4.775226240000000e-01 1.304337100000000e-01 2.205359600000000e-02 5.768465510000000e-02 6.445856599999999e-02 -1.764584480000000e-02 6.426112850000000e-02 -1.668880810000000e-02
            2.229196750000000e-02 5.735519750000000e-02 4.773484190000000e-01 1.296988430000000e-01 6.427723740000001e-02 -1.669030020000000e-02 6.423114140000000e-02 -1.329240860000000e-02
435637198.0000000000 6.179328660000000e-02 -3.846087490000000e-03 6.015093930000000e-02 -5.456528430000000e-03 4.952912690000000e-01 1.503614990000000e-02 3.565017250000000e-02 4.794941950000000e-02
            6.013228300000000e-02 -5.447879190000000e-03 6.193423070000000e-02 -6.880157630000000e-03 3.548446310000000e-02 4.829208730000000e-02 4.949399350000000e-01 1.436614740000000e-02
            4.952888540000000e-01 1.504384480000000e-02 3.548553990000000e-02 4.830777420000000e-02 5.909047390000000e-02 -6.460655350000000e-03 5.886540350000000e-02 -6.185015460000000e-03
            3.564575290000000e-02 4.795055990000000e-02 4.949260990000000e-01 1.436669180000000e-02 5.886579510000000e-02 -6.199614550000000e-03 5.885915670000000e-02 -2.132318970000000e-03
436136781.0000000000 6.227533930000000e-02 7.669259390000000e-03 6.032454590000000e-02 6.206516130000000e-03 4.849750880000000e-01 -1.014899600000000e-01 4.525335450000000e-02 3.557422490000000e-02
            6.031159080000000e-02 6.212853120000000e-03 6.241743180000000e-02 4.635400760000000e-03 4.521080430000000e-02 3.593036090000000e-02 4.844898440000000e-01 -1.020632070000000e-01
            4.849938810000000e-01 -1.015008720000000e-01 4.520653810000000e-02 3.592275400000000e-02 5.943784110000000e-02 5.986847910000000e-03 5.895755730000000e-02 5.611039450000000e-03
            4.524549580000000e-02 3.556509970000000e-02 4.844778560000000e-01 -1.020684690000000e-01 5.894988560000000e-02 5.619081080000000e-03 5.920260810000000e-02 1.029030920000000e-02
436636364.0000000000 6.814927620000000e-02 1.758844020000000e-02 6.589908810000000e-02 1.647208330000000e-02 4.472098290000000e-01 -2.120163140000000e-01 5.064973260000000e-02 2.180775260000000e-02
            6.590349970000001e-02 1.647398420000000e-02 6.833705520000000e-02 1.456632220000000e-02 5.070969110000000e-02 2.216456180000000e-02 4.465969160000000e-01 -2.124560300000000e-01
            4.472225690000000e-01 -2.120366620000000e-01 5.070643990000000e-02 2.216679670000000e-02 6.543813890000000e-02 1.688171710000000e-02 6.451853970000000e-02 1.600614000000000e-02
            5.066562770000000e-02 2.178938560000000e-02 4.465897160000000e-01 -2.124582810000000e-01 6.450911530000000e-02 1.600348720000000e-02 6.520234220000000e-02 2.116931130000000e-02
437135947.0000000000 7.805393560000000e-02 2.359948520000000e-02 7.561781300000001e-02 2.300305040000000e-02 3.845791130000000e-01 -3.100044770000000e-01 5.213381910000000e-02 8.142588439999999e-03
            7.560943010000000e-02 2.301098160000000e-02 7.823677460000000e-02 2.060049410000000e-02 5.226534340000000e-02 8.455577470000000e-03 3.838527750000000e-01 -3.102653660000000e-01
            3.845615680000000e-01 -3.100050850000000e-01 5.227669260000000e-02 8.440563349999999e-03 7.569028930000000e-02 2.378480180000000e-02 7.421774420000000e-02 2.260422310000000e-02
            5.212628980000000e-02 8.138888259999999e-03 3.838602630000000e-01 -3.102857220000000e-01 7.421760510000000e-02 2.260538780000000e-02 7.542347470000001e-02 2.807139270000000e-02
437635530.0000000000 8.963341230000001e-02 2.435067080000000e-02 8.720225240000000e-02 2.437012720000000e-02 3.011833340000000e-01 -3.900054060000000e-01 5.041666680000000e-02 -4.493131150000000e-03
            8.720303240000001e-02 2.436345440000000e-02 8.984212120000000e-02 2.135284600000000e-02 5.060026370000000e-02 -4.216293350000000e-03 3.004185080000000e-01 -3.901017150000000e-01
            3.011593820000000e-01 -3.900027870000000e-01 5.059612080000000e-02 -4.236616990000000e-03 8.787954019999999e-02 2.527891510000000e-02 8.578627020000000e-02 2.398080730000000e-02
            5.041013950000000e-02 -4.506923540000000e-03 3.004291170000000e-01 -3.901049000000000e-01 8.579941450000000e-02 2.398313620000000e-02 8.757147500000000e-02 2.955726510000000e-02
438135113.0000000000 1.003239840000000e-01 1.972154070000000e-02 9.811307360000000e-02 2.040062210000000e-02 2.021981200000000e-01 -4.480739000000000e-01 4.627960440000000e-02 -1.567665440000000e-02
            9.810395349999999e-02 2.039904600000000e-02 1.005395660000000e-01 1.671311740000000e-02 4.651904040000000e-02 -1.545615340000000e-02 2.014514430000000e-01 -4.480077560000000e-01
            2.021880110000000e-01 -4.480853860000000e-01 4.651312350000000e-02 -1.546800460000000e-02 9.930521900000000e-02 2.116814390000000e-02 9.665100240000001e-02 1.993848780000000e-02
            4.627688810000000e-02 -1.567257010000000e-02 2.014290350000000e-01 -4.479937570000000e-01 9.665064340000000e-02 1.991772870000000e-02 9.898135719999999e-02 2.544208600000000e-02
438634696.0000000000 1.077726970000000e-01 1.076883210000000e-02 1.060829540000000e-01 1.201661200000000e-02 9.318257150000001e-02 -4.817534240000000e-01 4.027745100000000e-02 -2.539037600000000e-02
            1.060757030000000e-01 1.202826570000000e-02 1.080307500000000e-01 7.742956690000000e-03 4.056354670000000e-02 -2.522887460000000e-02 9.247471960000000e-02 -4.815049150000000e-01
            9.319380330000000e-02 -4.817552310000000e-01 4.056781260000000e-02 -2.525918960000000e-02 1.075879540000000e-01 1.241838360000000e-02 1.044616280000000e-01 1.142970210000000e-02
            4.028673160000000e-02 -2.539257810000000e-02 9.247498940000000e-02 -4.815114270000000e-01 1.044771400000000e-01 1.141767550000000e-02 1.072432970000000e-01 1.673203010000000e-02
439134279.0000000000 1.105045270000000e-01 -5.991642810000000e-04 1.094998290000000e-01 1.040174210000000e-03 -2.015864980000000e-02 -4.897919970000000e-01 3.264252010000000e-02 -3.365062560000000e-02
            1.095021300000000e-01 1.043315460000000e-03 1.107456780000000e-01 -3.653029860000000e-03 3.293081250000000e-02 -3.356404970000000e-02 -2.078677520000000e-02 -4.893721960000000e-01
            -2.016453580000000e-02 -4.897874780000000e-01 3.293514090000000e-02 -3.357331200000000e-02 1.111050710000000e-01 1.000818590000000e-03 1.076283560000000e-01 2.822130750000000e-04
            3.264807960000000e-02 -3.362879170000000e-02 -2.080236870000000e-02 -4.893724310000000e-01 1.076233960000000e-01 2.879910990000000e-04 1.107345490000000e-01 5.320203370000000e-03
439633862.0000000000 1.078866360000000e-01 -1.206631880000000e-02 1.077264170000000e-01 -1.028141700000000e-02 -1.323036300000000e-01 -4.720305530000000e-01 2.328431600000000e-02 -4.027598860000000e-02
            1.077479620000000e-01 -1.028165960000000e-02 1.081330190000000e-01 -1.510875960000000e-02 2.360400770000000e-02 -4.025804160000000e-02 -1.328346690000000e-01 -4.714937600000000e-01
            -1.322860780000000e-01 -4.720188910000000e-01 2.360590160000000e-02 -4.026325290000000e-02 1.091372500000000e-01 -1.075963070000000e-02 1.054515590000000e-01 -1.115342360000000e-02
            2.328566380000000e-02 -4.026335470000000e-02 -1.328113460000000e-01 -4.714827370000000e-01 1.054562260000000e-01 -1.113122380000000e-02 1.087738120000000e-01 -6.410133660000000e-03
440133445.0000000000 1.004855280000000e-01 -2.121467330000000e-02 1.011915320000000e-01 -1.961138980000000e-02 -2.377094850000000e-01 -4.292884940000000e-01 1.232773570000000e-02 -4.472364330000000e-02
            1.011930180000000e-01 -1.960551830000000e-02 1.007072470000000e-01 -2.426522780000000e-02 1.262316900000000e-02 -4.479402170000000e-02 -2.381051090000000e-01 -4.286473700000000e-01
            -2.377216150000000e-01 -4.292962110000000e-01 1.262545040000000e-02 -4.480183700000000e-02 1.021586950000000e-01 -2.038522970000000e-02 9.832963520000000e-02 -2.048472180000000e-02
            1.231413500000000e-02 -4.472299310000000e-02 -2.381002240000000e-01 -4.286393550000000e-01 9.833221460000000e-02 -2.049713980000000e-02 1.017844630000000e-01 -1.604867180000000e-02
440633028.0000000000 8.973345040000000e-02 -2.612383900000000e-02 9.122782140000001e-02 -2.502611700000000e-02 -3.310580420000000e-01 -3.633534820000000e-01 1.045286990000000e-04 -4.629036710000000e-02
            9.124055239999999e-02 -2.500970220000000e-02 8.996072350000001e-02 -2.919059080000000e-02 3.805596980000000e-04 -4.642873510000000e-02 -3.312890160000000e-01 -3.626163750000000e-01
            -3.310692910000000e-01 -3.633543860000000e-01 3.639739360000000e-04 -4.643712680000000e-02 9.155828400000000e-02 -2.589426760000000e-02 8.767423380000000e-02 -2.573493300000000e-02
            9.997661060000000e-05 -4.629574420000000e-02 -3.312831660000000e-01 -3.626158710000000e-01 8.768499809999999e-02 -2.573911710000000e-02 9.120239180000000e-02 -2.152400800000000e-02
441132611.0000000000 7.790924350000000e-02 -2.569169140000000e-02 7.997374140000001e-02 -2.533417700000000e-02 -4.071645710000000e-01 -2.771449780000000e-01 -1.249131550000000e-02 -4.430094700000000e-02
            7.997130210000000e-02 -2.534638820000000e-02 7.814165120000000e-02 -2.877275400000000e-02 -1.227223410000000e-02 -4.452263790000000e-02 -4.072231540000000e-01 -2.763861590000000e-01
            -4.071590720000000e-01 -2.771459960000000e-01 -1.225866400000000e-02 -4.450488290000000e-02 7.957520170000000e-02 -2.600397820000000e-02 7.565444000000000e-02 -2.565245070000000e-02
            -1.248510810000000e-02 -4.429421000000000e-02 -4.072124580000000e-01 -2.763916650000000e-01 7.566409960000001e-02 -2.565723260000000e-02 7.924319140000000e-02 -2.165052900000000e-02
441632193.0000000000 6.758799790000000e-02 -1.995754590000000e-02 6.993358210000000e-02 -2.049431810000000e-02 -4.613683140000000e-01 -1.749187800000000e-01 -2.414278750000000e-02 -3.853615960000000e-02
            6.991602560000000e-02 -2.048800440000000e-02 6.781216660000000e-02 -2.303207870000000e-02 -2.399962180000000e-02 -3.880683010000000e-02 -4.612609610000000e-01 -1.741572530000000e-01
            -4.613691090000000e-01 -1.749253670000000e-01 -2.399642770000000e-02 -3.880130440000000e-02 6.880243090000000e-02 -2.065044280000000e-02 6.484944130000000e-02 -2.014274310000000e-02
            -2.413028400000000e-02 -3.855040550000000e-02 -4.612556840000000e-01 -1.741647210000000e-01 6.484905420000001e-02 -2.014392020000000e-02 6.850696069999999e-02 -1.628739420000000e-02
442131776.0000000000 6.107778210000000e-02 -1.016789370000000e-02 6.336973990000000e-02 -1.164659560000000e-02 -4.900591300000000e-01 -6.221175730000000e-02 -3.345114900000000e-02 -2.942031690000000e-02
            6.336227390000000e-02 -1.164740580000000e-02 6.126129010000000e-02 -1.322699850000000e-02 -3.339372590000000e-02 -2.969057030000000e-02 -4.897576150000000e-01 -6.150366270000000e-02
            -4.900598930000000e-01 -6.222768640000000e-02 -3.339942550000000e-02 -2.970593280000000e-02 6.170731870000000e-02 -1.094852500000000e-02 5.765733830000000e-02 -1.028106490000000e-02
            -3.344750210000000e-02 -2.940782400000000e-02 -4.897589800000000e-01 -6.150860730000000e-02 5.765819680000000e-02 -1.028944740000000e-02 6.139693160000000e-02 -6.606862610000000e-03
442631359.0000000000 5.986607690000000e-02 1.446257240000000e-03 6.179813870000000e-02 -8.887817880000000e-04 -4.910877840000000e-01 5.435722900000000e-02 -3.928685070000000e-02 -1.804306600000000e-02
            6.179996540000000e-02 -8.822764810000000e-04 6.006351210000000e-02 -1.601782320000000e-03 -3.931546590000000e-02 -1.833099710000000e-02 -4.906096140000000e-01 5.498811560000000e-02
            -4.910838070000000e-01 5.434872980000000e-02 -3.932413050000000e-02 -1.834436480000000e-02 5.988405400000000e-02 8.877527110000000e-04 5.569328410000000e-02 1.740248910000000e-03
            -3.928655900000000e-02 -1.805528220000000e-02 -4.906170080000000e-01 5.497858410000000e-02 5.569978100000000e-02 1.746995960000000e-03 5.955558870000000e-02 5.194173770000000e-03
443130942.0000000000 6.416450040000000e-02 1.215834270000000e-02 6.550139870000000e-02 9.170971789999999e-03 -4.642850510000000e-01 1.677464300000000e-01 -4.120473430000000e-02 -5.954907040000000e-03
            6.550863160000001e-02 9.173859459999999e-03 6.439966960000000e-02 9.124876190000001e-03 -4.131678830000000e-02 -6.207588620000000e-03 -4.636801030000000e-01 1.682348080000000e-01
            -4.642683740000000e-01 1.677492750000000e-01 -4.130665860000000e-02 -6.206126510000000e-03 6.369252650000000e-02 1.212531590000000e-02 5.934531700000000e-02 1.326617280000000e-02
            -4.121530900000000e-02 -5.942716270000000e-03 -4.636857430000000e-01 1.682492500000000e-01 5.935176370000000e-02 1.326204930000000e-02 6.336944620000000e-02 1.642405710000000e-02
443630525.0000000000 7.290850690000000e-02 1.951585700000000e-02 7.348367040000001e-02 1.609723500000000e-02 -4.114607190000000e-01 2.711329270000000e-01 -3.950040960000000e-02 5.462867010000000e-03
            7.348009820000000e-02 1.611495170000000e-02 7.314511220000000e-02 1.650849580000000e-02 -3.966949920000000e-02 5.242473880000000e-03 -4.107716550000000e-01 2.714678820000000e-01
            -4.114754050000000e-01 2.711187390000000e-01 -3.967832050000000e-02 5.249505850000000e-03 7.215294820000000e-02 2.022729050000000e-02 6.770437579999999e-02 2.174381580000000e-02
            -3.949594960000000e-02 5.458391120000000e-03 -4.107664300000000e-01 2.714784640000000e-01 6.771834160000000e-02 2.173827750000000e-02 7.179063890000000e-02 2.450716670000000e-02
444130108.0000000000 8.393383710000001e-02 2.189565340000000e-02 8.372364180000000e-02 1.834222440000000e-02 -3.362264980000000e-01 3.586706270000000e-01 -3.501303350000000e-02 1.516573380000000e-02
            8.372012769999999e-02 1.834817280000000e-02 8.418697150000000e-02 1.890091320000000e-02 -3.522867310000000e-02 1.503655500000000e-02 -3.354767650000000e-01 3.588497780000000e-01
            -3.362450990000000e-01 3.586767870000000e-01 -3.522524920000000e-02 1.502964750000000e-02 8.321695610000000e-02 2.344884290000000e-02 7.877548690000000e-02 2.544845270000000e-02
            -3.501716170000000e-02 1.518270380000000e-02 -3.354847730000000e-01 3.588637820000000e-01 7.877849440000000e-02 2.544743930000000e-02 8.284049459999999e-02 2.773300180000000e-02
444629691.0000000000 9.469110009999999e-02 1.890685130000000e-02 9.374119340000001e-02 1.544582060000000e-02 -2.433130820000000e-01 4.258687100000000e-01 -2.868983840000000e-02 2.280002720000000e-02
            9.374059140000000e-02 1.545169660000000e-02 9.497244480000000e-02 1.589889370000000e-02 -2.893976590000000e-02 2.270609430000000e-02 -2.425410950000000e-01 4.258681680000000e-01
            -2.433123880000000e-01 4.258599790000000e-01 -2.892660450000000e-02 2.271861540000000e-02 9.433528450000001e-02 2.127459270000000e-02 9.004106900000000e-02 2.377640870000000e-02
            -2.869893630000000e-02 2.280946910000000e-02 -2.425418300000000e-01 4.258694510000000e-01 9.004534259999999e-02 2.378622870000000e-02 9.393092580000000e-02 2.554467310000000e-02
445129274.0000000000 1.027985630000000e-01 1.131992010000000e-02 1.012427770000000e-01 8.154212430000000e-03 -1.380564710000000e-01 4.696589060000000e-01 -2.133081010000000e-02 2.842975430000000e-02
            1.012417210000000e-01 8.140915730000000e-03 1.030940860000000e-01 8.310617570000000e-03 -2.157469960000000e-02 2.839550390000000e-02 -1.372912620000000e-01 4.694548730000000e-01
            -1.380615940000000e-01 4.696465380000000e-01 -2.156942900000000e-02 2.839291770000000e-02 1.030809490000000e-01 1.433773590000000e-02 9.910851800000001e-02 1.736130040000000e-02
            -2.133407520000000e-02 2.843675500000000e-02 -1.372972540000000e-01 4.694591550000000e-01 9.911521680000000e-02 1.735234770000000e-02 1.026447560000000e-01 1.861169440000000e-02
445628857.0000000000 1.065014280000000e-01 8.982315519999999e-04 1.045335900000000e-01 -1.893239970000000e-03 -2.607897770000000e-02 4.882385110000000e-01 -1.330207960000000e-02 3.224514100000000e-02
            1.045342160000000e-01 -1.901588030000000e-03 1.067961430000000e-01 -2.147481170000000e-03 -1.353998890000000e-02 3.228254410000000e-02 -2.538331910000000e-02 4.878860530000000e-01
            -2.605150470000000e-02 4.882280640000000e-01 -1.354004410000000e-02 3.228932870000000e-02 1.076162180000000e-01 4.278666800000000e-03 1.041539810000000e-01 7.757358500000000e-03
            -1.330909160000000e-02 3.224067390000000e-02 -2.537738220000000e-02 4.879037610000000e-01 1.041535060000000e-01 7.754145300000000e-03 1.071639480000000e-01 8.575808220000000e-03
446128440.0000000000 1.050296060000000e-01 -1.008914190000000e-02 1.028093070000000e-01 -1.252245710000000e-02 8.705336280000001e-02 4.809844620000000e-01 -4.696353640000000e-03 3.440216860000000e-02
            1.028121710000000e-01 -1.251829220000000e-02 1.053278010000000e-01 -1.313484620000000e-02 -4.922190970000000e-03 3.449060870000000e-02 8.766215020000000e-02 4.804997720000000e-01
            8.705543840000000e-02 4.810023200000000e-01 -4.932111560000000e-03 3.447237170000000e-02 1.070184880000000e-01 -6.664867460000000e-03 1.042617710000000e-01 -2.909186480000000e-03
            -4.716893760000000e-03 3.439222700000000e-02 8.765198350000000e-02 4.805006420000000e-01 1.042472460000000e-01 -2.919319330000000e-03 1.065575820000000e-01 -2.339830580000000e-03
446628023.0000000000 9.863919940000000e-02 -1.925238040000000e-02 9.635428300000000e-02 -2.138842690000000e-02 1.957558740000000e-01 4.482597830000000e-01 4.416384460000000e-03 3.465321200000000e-02
            9.634730919999999e-02 -2.138426060000000e-02 9.895992760000000e-02 -2.231239360000000e-02 4.226942370000000e-03 3.480671600000000e-02 1.962081640000000e-01 4.476199020000000e-01
            1.957615760000000e-01 4.482532660000000e-01 4.234715680000000e-03 3.479779590000000e-02 1.014745960000000e-01 -1.609467750000000e-02 9.948910270000000e-02 -1.231482160000000e-02
            4.419657650000000e-03 3.466839290000000e-02 1.962256650000000e-01 4.476130550000000e-01 9.949312389999999e-02 -1.230671930000000e-02 1.010150000000000e-01 -1.174607710000000e-02
447127606.0000000000 8.872240520000001e-02 -2.454333780000000e-02 8.636044680000000e-02 -2.649467620000000e-02 2.945025070000000e-01 3.913465430000000e-01 1.382049620000000e-02 3.263135990000000e-02
            8.636535910000000e-02 -2.650574120000000e-02 8.902425590000000e-02 -2.762787180000000e-02 1.367616940000000e-02 3.283026610000000e-02 2.948039260000000e-01 3.906360530000000e-01
            2.944924530000000e-01 3.913515280000000e-01 1.368637090000000e-02 3.282840930000000e-02 9.215133620000000e-02 -2.195365090000000e-02 9.096307830000000e-02 -1.839255590000000e-02
            1.383157130000000e-02 3.262730860000000e-02 2.948058660000000e-01 3.906207040000000e-01 9.094829740000000e-02 -1.839592990000000e-02 9.169535249999999e-02 -1.758100980000000e-02
447627189.0000000000 7.734491400000000e-02 -2.470430180000000e-02 7.491061720000000e-02 -2.660381040000000e-02 3.779132750000000e-01 3.127994310000000e-01 2.285839580000000e-02 2.788601730000000e-02
            7.490662480000000e-02 -2.658492200000000e-02 7.761877880000000e-02 -2.779757660000000e-02 2.275590290000000e-02 2.812612270000000e-02 3.780433510000000e-01 3.120161850000000e-01
            3.779168540000000e-01 3.127926410000000e-01 2.276753630000000e-02 2.811568360000000e-02 8.105856010000000e-02 -2.281539800000000e-02 8.055739920000000e-02 -1.976651740000000e-02
            2.284559260000000e-02 2.787393690000000e-02 3.780623050000000e-01 3.120164270000000e-01 8.054178230000000e-02 -1.976524070000000e-02 8.063096090000001e-02 -1.844137470000000e-02
448126772.0000000000 6.704177250000000e-02 -1.955315940000000e-02 6.445539040000001e-02 -2.146676970000000e-02 4.410693170000000e-01 2.163871030000000e-01 3.047378340000000e-02 2.029115430000000e-02
            6.445675020000000e-02 -2.145698860000000e-02 6.732736160000000e-02 -2.261521570000000e-02 3.045920740000000e-02 2.053941450000000e-02 4.410103440000000e-01 2.155980100000000e-01
            4.410597240000000e-01 2.163869420000000e-01 3.045130530000000e-02 2.054495670000000e-02 7.071856990000000e-02 -1.836186930000000e-02 7.067844900000000e-02 -1.604742820000000e-02
            3.047395810000000e-02 2.029884560000000e-02 4.410153060000000e-01 2.156091600000000e-01 7.067965420000000e-02 -1.605315110000000e-02 7.028766570000000e-02 -1.401780290000000e-02
448626355.0000000000 6.025956190000000e-02 -1.010332920000000e-02 5.738635610000000e-02 -1.205967110000000e-02 4.798278990000000e-01 1.073142170000000e-01 3.549883040000000e-02 1.032872030000000e-02
            5.738996140000000e-02 -1.206110560000000e-02 6.053467850000000e-02 -1.314873260000000e-02 3.557386760000000e-02 1.058797850000000e-02 4.795849920000000e-01 1.065680550000000e-01
            4.798354440000000e-01 1.073191020000000e-01 3.555960100000000e-02 1.056843450000000e-02 6.352673070000001e-02 -9.515675770000001e-03 6.370302920000000e-02 -8.055509480000000e-03
            3.551280130000000e-02 1.034643750000000e-02 4.796055670000000e-01 1.065578040000000e-01 6.369535229999999e-02 -8.054783899999999e-03 6.312289370000000e-02 -5.174636750000000e-03
449125938.0000000000 5.861676350000000e-02 1.499829990000000e-03 5.531681380000000e-02 -4.483142530000000e-04 4.915583110000000e-01 -8.091476639999999e-03 3.708316930000000e-02 -9.271371740000000e-04
            5.532617970000000e-02 -4.602359140000000e-04 5.888818180000000e-02 -1.534856020000000e-03 3.720013830000000e-02 -7.182935650000000e-04 4.911464100000000e-01 -8.760829899999999e-03
            4.915676580000000e-01 -8.093867730000001e-03 3.719546730000000e-02 -7.129731370000000e-04 6.124939190000000e-02 1.797586210000000e-03 6.128589290000000e-02 2.386485350000000e-03
            3.705247910000000e-02 -9.381494010000000e-04 4.911585460000000e-01 -8.758901240000000e-03 6.127612330000000e-02 2.393006260000000e-03 6.085268590000000e-02 6.107140210000000e-03
449625521.0000000000 6.258962220000000e-02 1.257977530000000e-02 5.876926890000000e-02 1.076372510000000e-02 4.754421180000000e-01 -1.228661290000000e-01 3.483954370000000e-02 -1.205031810000000e-02
            5.875805670000000e-02 1.077627510000000e-02 6.286596260000001e-02 9.561025210000001e-03 3.502989200000000e-02 -1.188212330000000e-02 4.748920070000000e-01 -1.234324200000000e-01
            4.754411990000000e-01 -1.228537740000000e-01 3.502765750000000e-02 -1.188334110000000e-02 6.450268480000000e-02 1.293484200000000e-02 6.406582270000000e-02 1.276195250000000e-02
            3.483672590000000e-02 -1.204250340000000e-02 4.749023570000000e-01 -1.234283380000000e-01 6.407201340000000e-02 1.277340350000000e-02 6.407825650000000e-02 1.722834890000000e-02
450125104.0000000000 7.124696810000000e-02 2.058126550000000e-02 6.685190770000000e-02 1.908748010000000e-02 4.326880570000000e-01 -2.301068200000000e-01 2.927390220000000e-02 -2.160700050000000e-02
            6.683156990000000e-02 1.908558190000000e-02 7.155323560000000e-02 1.756201230000000e-02 2.951646700000000e-02 -2.150103220000000e-02 4.320215710000000e-01 -2.305291160000000e-01
            4.326841500000000e-01 -2.301039600000000e-01 2.951173990000000e-02 -2.150778800000000e-02 7.253850910000000e-02 2.138640340000000e-02 7.137811690000000e-02 2.067334600000000e-02
            2.930241320000000e-02 -2.160535940000000e-02 4.320149790000000e-01 -2.305377870000000e-01 7.139011219999999e-02 2.067687240000000e-02 7.209939750000000e-02 2.563979770000000e-02
450624687.0000000000 8.262379030000000e-02 2.368645010000000e-02 7.766494330000000e-02 2.270846620000000e-02 3.662877640000000e-01 -3.237193470000000e-01 2.139000660000000e-02 -2.865576520000000e-02
            7.766383720000000e-02 2.270779870000000e-02 8.295257609999999e-02 2.068555040000000e-02 2.163207270000000e-02 -2.862266630000000e-02 3.655129350000000e-01 -3.239651320000000e-01
            3.662780060000000e-01 -3.237021670000000e-01 2.165761380000000e-02 -2.861355040000000e-02 8.351852420000000e-02 2.521574070000000e-02 8.147875780000000e-02 2.430272610000000e-02
            2.139276490000000e-02 -2.866979880000000e-02 3.655180440000000e-01 -3.239639840000000e-01 8.149493380000000e-02 2.429097410000000e-02 8.303630310000000e-02 2.948505330000000e-02
451124270.0000000000 9.416295020000000e-02 2.126769860000000e-02 8.873176970000000e-02 2.098501770000000e-02 2.805049900000000e-01 -3.987788290000000e-01 1.233395740000000e-02 -3.286922670000000e-02
            8.873649060000000e-02 2.100191020000000e-02 9.450322140000000e-02 1.826597510000000e-02 1.257206540000000e-02 -3.292147900000000e-02 2.797057020000000e-01 -3.988458180000000e-01
            2.804847830000000e-01 -3.987732760000000e-01 1.258401200000000e-02 -3.290504660000000e-02 9.499205240000000e-02 2.368597250000000e-02 9.208441639999999e-02 2.293976740000000e-02
            1.233911150000000e-02 -3.287466720000000e-02 2.796994530000000e-01 -3.988404580000000e-01 9.209202980000000e-02 2.293798910000000e-02 9.449234440000000e-02 2.794173900000000e-02
451623853.0000000000 1.033352030000000e-01 1.390977900000000e-02 9.765023650000000e-02 1.447013200000000e-02 1.803926680000000e-01 -4.517797070000000e-01 3.067525740000000e-03 -3.448625790000000e-02
            9.765626099999999e-02 1.448227860000000e-02 1.037111640000000e-01 1.090266960000000e-02 3.293340650000000e-03 -3.458107940000000e-02 1.796074360000000e-01 -4.516486970000000e-01
            1.803939510000000e-01 -4.517809630000000e-01 3.297297050000000e-03 -3.458142930000000e-02 1.045246190000000e-01 1.719464740000000e-02 1.008475340000000e-01 1.698238510000000e-02
            3.071261720000000e-03 -3.447819050000000e-02 1.796041980000000e-01 -4.516663050000000e-01 1.008415750000000e-01 1.698802140000000e-02 1.039939960000000e-01 2.148303240000000e-02
452123436.0000000000 1.083076940000000e-01 3.220558060000000e-03 1.025310720000000e-01 4.683893850000000e-03 7.134456020000000e-02 -4.804746810000000e-01 -5.848397610000000e-03 -3.393056290000000e-02
            1.025225530000000e-01 4.685764340000000e-03 1.086677120000000e-01 2.211937810000000e-04 -5.659582950000000e-03 -3.407806110000000e-02 7.060979720000000e-02 -4.801846990000000e-01
            7.135116440000000e-02 -4.804732220000000e-01 -5.645679910000000e-03 -3.407012460000000e-02 1.101224200000000e-01 7.226990440000000e-03 1.059421120000000e-01 7.803937590000000e-03
            -5.843557290000000e-03 -3.392394810000000e-02 7.060620700000000e-02 -4.801945200000000e-01 1.059386970000000e-01 7.785340150000000e-03 1.095746340000000e-01 1.151302420000000e-02
452623019.0000000000 1.079840160000000e-01 -8.588138650000000e-03 1.023638470000000e-01 -6.226021710000000e-03 -4.114225500000000e-02 -4.837420300000000e-01 -1.422036370000000e-02 -3.161041710000000e-02
            1.023558720000000e-01 -6.238352470000000e-03 1.083548880000000e-01 -1.160019250000000e-02 -1.408016280000000e-02 -3.180237030000000e-02 -4.178947770000000e-02 -4.832901460000000e-01
            -4.113440030000000e-02 -4.837417880000000e-01 -1.408213600000000e-02 -3.180339480000000e-02 1.107244020000000e-01 -4.180935770000000e-03 1.063741650000000e-01 -2.598540150000000e-03
            -1.420815670000000e-02 -3.159995080000000e-02 -4.179299970000000e-02 -4.833063210000000e-01 1.063673600000000e-01 -2.603312280000000e-03 1.101602300000000e-01 1.270065870000000e-04
453122602.0000000000 1.024847580000000e-01 -1.902631710000000e-02 9.717433200000000e-02 -1.591275150000000e-02 -1.515706590000000e-01 -4.614574090000000e-01 -2.205299610000000e-02 -2.765369300000000e-02
            9.717729450000000e-02 -1.591708720000000e-02 1.028556610000000e-01 -2.209142440000000e-02 -2.196492650000000e-02 -2.789121920000000e-02 -1.521060250000000e-01 -4.608585990000000e-01
            -1.515560320000000e-01 -4.614607990000000e-01 -2.198295630000000e-02 -2.787936820000000e-02 1.061711770000000e-01 -1.462655530000000e-02 1.020913140000000e-01 -1.203591810000000e-02
            -2.207136250000000e-02 -2.763265330000000e-02 -1.520916880000000e-01 -4.608499780000000e-01 1.020834650000000e-01 -1.203124380000000e-02 1.055959100000000e-01 -1.028572740000000e-02
453622185.0000000000 9.288683310000000e-02 -2.601013420000000e-02 8.799227990000000e-02 -2.221685980000000e-02 -2.543729900000000e-01 -4.144352930000000e-01 -2.925714460000000e-02 -2.192300410000000e-02
            8.799179679999999e-02 -2.222172500000000e-02 9.324800079999999e-02 -2.906728410000000e-02 -2.922059480000000e-02 -2.217384630000000e-02 -2.547747920000000e-01 -4.137289440000000e-01
            -2.543855760000000e-01 -4.144254880000000e-01 -2.922442420000000e-02 -2.217831040000000e-02 9.743683800000000e-02 -2.193838940000000e-02 9.400383860000000e-02 -1.844491710000000e-02
            -2.926468630000000e-02 -2.190880690000000e-02 -2.547617120000000e-01 -4.137386300000000e-01 9.398857220000000e-02 -1.845539160000000e-02 9.687706710000001e-02 -1.758197300000000e-02
454121768.0000000000 8.117456070000000e-02 -2.795451610000000e-02 7.676238800000000e-02 -2.364916140000000e-02 -3.441071120000000e-01 -3.446517770000000e-01 -3.535369720000000e-02 -1.415485630000000e-02
            7.675535510000001e-02 -2.364785600000000e-02 8.151951050000000e-02 -3.102920010000000e-02 -3.539595330000000e-02 -1.441582040000000e-02 -3.443021130000000e-01 -3.438776340000000e-01
            -3.441059410000000e-01 -3.446448670000000e-01 -3.538869630000000e-02 -1.443273440000000e-02 8.631528920000001e-02 -2.455145860000000e-02 8.386594290000000e-02 -2.042324460000000e-02
            -3.534619680000000e-02 -1.415125370000000e-02 -3.443125790000000e-01 -3.438748800000000e-01 8.388039640000000e-02 -2.041027910000000e-02 8.578550660000001e-02 -2.019941260000000e-02
454621351.0000000000 6.979954150000001e-02 -2.442821890000000e-02 6.588136180000000e-02 -1.971150570000000e-02 -4.155077080000000e-01 -2.553927700000000e-01 -3.958108030000000e-02 -4.349943110000000e-03
            6.588293540000000e-02 -1.970985300000000e-02 7.014990679999999e-02 -2.748102730000000e-02 -3.968260640000000e-02 -4.604473360000000e-03 -4.155195770000000e-01 -2.545811520000000e-01
            -4.155140110000000e-01 -2.553822350000000e-01 -3.967592090000000e-02 -4.602537050000000e-03 7.523298389999999e-02 -2.182855520000000e-02 7.398460390000000e-02 -1.744439590000000e-02
            -3.957540920000000e-02 -4.341199220000000e-03 -4.155215340000000e-01 -2.545765630000000e-01 7.398058820000000e-02 -1.744087460000000e-02 7.470813900000001e-02 -1.748899330000000e-02
455120934.0000000000 6.134555840000000e-02 -1.614283240000000e-02 5.785059840000000e-02 -1.111362220000000e-02 -4.640901840000000e-01 -1.513044010000000e-01 -4.091639870000000e-02 7.057794780000000e-03
            5.786845290000000e-02 -1.109830420000000e-02 6.168015550000000e-02 -1.918202460000000e-02 -4.111912410000000e-02 6.836461350000000e-03 -4.639284210000000e-01 -1.505194270000000e-01
            -4.640859560000000e-01 -1.513105710000000e-01 -4.111545450000000e-02 6.834266730000000e-03 6.661504159999999e-02 -1.433209210000000e-02 6.662132450000000e-02 -1.011426150000000e-02
            -4.092462840000000e-02 7.051416480000000e-03 -4.639204850000000e-01 -1.505299110000000e-01 6.662560630000000e-02 -1.010717840000000e-02 6.609775420000000e-02 -1.001342240000000e-02
455620517.0000000000 5.768268390000000e-02 -4.987456910000000e-03 5.459450850000000e-02 3.649469510000000e-04 -4.865867910000000e-01 -3.839028160000000e-02 -3.866551280000000e-02 1.901167470000000e-02
            5.459505930000000e-02 3.752817840000000e-04 5.802179840000000e-02 -8.023046450000000e-03 -3.890443460000000e-02 1.885394610000000e-02 -4.862583580000000e-01 -3.765785580000000e-02
            -4.865982360000000e-01 -3.838466460000000e-02 -3.891758170000000e-02 1.883837870000000e-02 6.241521780000000e-02 -3.780790860000000e-03 6.361717980000001e-02 -1.231817670000000e-04
            -3.867007620000000e-02 1.902739070000000e-02 -4.862524350000000e-01 -3.765673520000000e-02 6.362200920000000e-02 -1.331524880000000e-04 6.191110010000000e-02 5.389821890000000e-04
456120100.0000000000 5.961368650000000e-02 6.447267890000000e-03 5.688260040000000e-02 1.214684290000000e-02 -4.815430590000000e-01 7.660645780000000e-02 -3.256626500000000e-02 3.009323840000000e-02
            5.687456040000000e-02 1.215289270000000e-02 5.995171980000000e-02 3.434783770000000e-03 -3.287350670000000e-02 3.001106590000000e-02 -4.810335930000000e-01 7.720939950000000e-02
            -4.815356830000000e-01 7.659784540000000e-02 -3.288124540000000e-02 3.001772870000000e-02 6.355233030000000e-02 7.425678710000000e-03 6.573678450000001e-02 1.011748760000000e-02
            -3.254911740000000e-02 3.010992330000000e-02 -4.810442560000000e-01 7.722299630000000e-02 6.573430750000001e-02 1.011916550000000e-02 6.304837310000000e-02 1.170459640000000e-02
456619683.0000000000 6.655620270000000e-02 1.550219130000000e-02 6.421018000000001e-02 2.159610510000000e-02 -4.494015310000000e-01 1.867019800000000e-01 -2.315446360000000e-02 3.887554710000000e-02
            6.421861969999999e-02 2.159994700000000e-02 6.690819210000000e-02 1.250962640000000e-02 -2.347287180000000e-02 3.886054730000000e-02 -4.487680130000000e-01 1.872018400000000e-01
            -4.493959280000000e-01 1.866937320000000e-01 -2.346204370000000e-02 3.886274080000000e-02 6.965852490000000e-02 1.668838110000000e-02 7.247817049999999e-02 1.818309190000000e-02
            -2.315653470000000e-02 3.886764990000000e-02 -4.487539110000000e-01 1.871995060000000e-01 7.247876070000001e-02 1.816065060000000e-02 6.912872650000000e-02 2.099008020000000e-02
457119266.0000000000 7.678167630000000e-02 2.018185000000000e-02 7.491944139999999e-02 2.675124850000000e-02 -3.924981720000000e-01 2.855661080000000e-01 -1.155295530000000e-02 4.431311560000000e-02
            7.494401780000000e-02 2.674236060000000e-02 7.714994850000000e-02 1.717147770000000e-02 -1.187234150000000e-02 4.439498540000000e-02 -3.917656810000000e-01 2.858743550000000e-01
            -3.925126800000000e-01 2.855461970000000e-01 -1.186145780000000e-02 4.439702020000000e-02 7.919351049999999e-02 2.202289080000000e-02 8.223379779999999e-02 2.214946330000000e-02
            -1.154144400000000e-02 4.430964280000000e-02 -3.917745740000000e-01 2.858864600000000e-01 8.224355670000000e-02 2.213874420000000e-02 7.863667489999999e-02 2.626641820000000e-02
457618849.0000000000 8.782086650000000e-02 1.951901550000000e-02 8.661148530000000e-02 2.653171110000000e-02 -3.146583410000000e-01 3.678473130000000e-01 8.987637910000000e-04 4.607312390000000e-02
            8.660956979999999e-02 2.654036200000000e-02 8.821340880000000e-02 1.652054250000000e-02 6.119954820000000e-04 4.623463200000000e-02 -3.138753480000000e-01 3.679940030000000e-01
            -3.146753480000000e-01 3.678606650000000e-01 6.219648190000000e-04 4.624242410000000e-02 8.987930050000000e-02 2.233758430000000e-02 9.277745330000001e-02 2.112639730000000e-02
            8.940744540000000e-04 4.607807250000000e-02 -3.138713010000000e-01 3.680030880000000e-01 9.276918960000000e-02 2.113124590000000e-02 8.929190630000000e-02 2.660282150000000e-02
458118432.0000000000 9.716671650000000e-02 1.382540700000000e-02 9.678355420000000e-02 2.123645990000000e-02 -2.205541570000000e-01 4.296109870000000e-01 1.295885050000000e-02 4.441075350000000e-02
            9.678213950000000e-02 2.123999090000000e-02 9.758586660000000e-02 1.081817870000000e-02 1.272247520000000e-02 4.463601770000000e-02 -2.197499380000000e-01 4.295551700000000e-01
            -2.205568920000000e-01 4.296060010000000e-01 1.273195590000000e-02 4.464566540000000e-02 9.932252730000000e-02 1.779188850000000e-02 1.016956240000000e-01 1.538556130000000e-02
            1.295207690000000e-02 4.440153390000000e-02 -2.197530850000000e-01 4.295694000000000e-01 1.017068590000000e-01 1.537315600000000e-02 9.870754510000000e-02 2.205576900000000e-02
458618015.0000000000 1.027813240000000e-01 4.486365470000000e-03 1.034104960000000e-01 1.216233890000000e-02 -1.153699300000000e-01 4.681067020000000e-01 2.384273890000000e-02 3.994098090000000e-02
            1.033936000000000e-01 1.215154190000000e-02 1.032024330000000e-01 1.476335740000000e-03 2.366677950000000e-02 4.022604680000000e-02 -1.145902360000000e-01 4.678771090000000e-01
            -1.153604690000000e-01 4.681067600000000e-01 2.365963460000000e-02 4.021944650000000e-02 1.054931140000000e-01 9.534728720000000e-03 1.070859740000000e-01 6.164100500000000e-03
            2.384143340000000e-02 3.991795990000000e-02 -1.146018870000000e-01 4.678696720000000e-01 1.070884390000000e-01 6.155588250000000e-03 1.048744640000000e-01 1.382261570000000e-02
459117598.0000000000 1.034342780000000e-01 -6.399509470000000e-03 1.051897910000000e-01 1.263458860000000e-03 -4.448513250000000e-03 4.817051030000000e-01 3.317916340000000e-02 3.328317130000000e-02
            1.051848430000000e-01 1.251944650000000e-03 1.038788000000000e-01 -9.423014060000000e-03 3.309401210000000e-02 3.359468260000000e-02 -3.747468680000000e-03 4.813282930000000e-01
            -4.454788530000000e-03 4.817237290000000e-01 3.307994450000000e-02 3.360146670000000e-02 1.071387360000000e-01 -5.245045750000001e-04 1.077677510000000e-01 -4.571871300000000e-03
            3.317239060000000e-02 3.328307470000000e-02 -3.728198330000000e-03 4.813276330000000e-01 1.077599230000000e-01 -4.586432860000000e-03 1.064989620000000e-01 3.775971370000000e-03
459617181.0000000000 9.897687310000000e-02 -1.644788260000000e-02 1.018858320000000e-01 -9.103003460000000e-03 1.067315190000000e-01 4.698190100000000e-01 4.087590420000000e-02 2.489711780000000e-02
            1.018867910000000e-01 -9.105209100000001e-03 9.944024880000001e-02 -1.948432930000000e-02 4.086189700000000e-02 2.523864210000000e-02 1.073145130000000e-01 4.692835830000000e-01
            1.067434010000000e-01 4.698493490000000e-01 4.087088150000000e-02 2.524709560000000e-02 1.039224680000000e-01 -1.017054320000000e-02 1.035290970000000e-01 -1.456623770000000e-02
            4.088195680000000e-02 2.490855370000000e-02 1.073063540000000e-01 4.692891380000000e-01 1.035174060000000e-01 -1.455605980000000e-02 1.032681160000000e-01 -5.848777050000000e-03
460116764.0000000000 9.031343880000001e-02 -2.342216220000000e-02 9.429680209999999e-02 -1.673824550000000e-02 2.126046720000000e-01 4.328398060000000e-01 4.686454030000000e-02 1.493491150000000e-02
            9.428420540000000e-02 -1.671518740000000e-02 9.073784510000001e-02 -2.647122650000000e-02 4.695038150000000e-02 1.528552790000000e-02 2.130693390000000e-01 4.321579660000000e-01
            2.125933740000000e-01 4.328368460000000e-01 4.694883030000000e-02 1.529661660000000e-02 9.655272440000000e-02 -1.719005430000000e-02 9.519459610000000e-02 -2.166565920000000e-02
            4.686758710000000e-02 1.494426150000000e-02 2.130718620000000e-01 4.321781080000000e-01 9.517990350000000e-02 -2.166290640000000e-02 9.590881890000000e-02 -1.284970910000000e-02
460616347.0000000000 7.922996760000001e-02 -2.567623010000000e-02 8.406126500000000e-02 -1.992041180000000e-02 3.076000980000000e-01 3.721784190000000e-01 5.083122050000000e-02 3.425700460000000e-03
            8.404975600000000e-02 -1.990687740000000e-02 7.963211539999999e-02 -2.874571410000000e-02 5.100947790000000e-02 3.761095020000000e-03 3.078824320000000e-01 3.714090380000000e-01
            3.075965940000000e-01 3.721712500000000e-01 5.100251160000000e-02 3.748282870000000e-03 8.661573750000000e-02 -1.997865310000000e-02 8.443730350000000e-02 -2.429821780000000e-02
            5.085656650000000e-02 3.426024770000000e-03 3.078675500000000e-01 3.714098490000000e-01 8.443154210000001e-02 -2.429235330000000e-02 8.600024219999999e-02 -1.564327050000000e-02
461115930.0000000000 6.815390170000001e-02 -2.255095570000000e-02 7.352208900000000e-02 -1.794029610000000e-02 3.862843430000000e-01 2.906388530000000e-01 5.218332340000000e-02 -9.511740560000001e-03
            7.350595309999999e-02 -1.792868150000000e-02 6.856645850000000e-02 -2.560246800000000e-02 5.243480170000000e-02 -9.220821759999999e-03 3.863773000000000e-01 2.898167220000000e-01
            3.862726710000000e-01 2.906361670000000e-01 5.242708240000000e-02 -9.233990250000001e-03 7.638285860000001e-02 -1.775943440000000e-02 7.354539659999999e-02 -2.175148210000000e-02
            5.219790740000000e-02 -9.516683570000000e-03 3.863709790000000e-01 2.898283410000000e-01 7.355091179999999e-02 -2.176071760000000e-02 7.577982570000000e-02 -1.341483160000000e-02
461615513.0000000000 5.964019960000000e-02 -1.457326670000000e-02 6.512091700000000e-02 -1.118670180000000e-02 4.437894500000000e-01 1.924100900000000e-01 5.013492460000000e-02 -2.329948810000000e-02
            6.513585690000000e-02 -1.118064880000000e-02 6.004078800000000e-02 -1.760841880000000e-02 5.045706980000000e-02 -2.307302630000000e-02 4.437033940000000e-01 1.916314300000000e-01
            4.437894080000000e-01 1.924241690000000e-01 5.044909640000000e-02 -2.307631200000000e-02 6.824141850000000e-02 -1.084476560000000e-02 6.494985820000000e-02 -1.448770610000000e-02
            5.013706210000000e-02 -2.331840450000000e-02 4.437079750000000e-01 1.916035450000000e-01 6.494994370000000e-02 -1.449610790000000e-02 6.763381070000000e-02 -6.531090040000000e-03
462115096.0000000000 5.571602520000000e-02 -3.437440310000000e-03 6.091536030000000e-02 -1.198281590000000e-03 4.763952180000000e-01 8.308764940000000e-02 4.404852630000000e-02 -3.685716320000000e-02
            6.093826770000000e-02 -1.200716030000000e-03 5.611823080000000e-02 -6.463640030000000e-03 4.444037030000000e-02 -3.672023830000000e-02 4.761175190000000e-01 8.232140979999999e-02
            4.764015280000000e-01 8.308785240000000e-02 4.445109180000000e-02 -3.671555740000000e-02 6.418602100000000e-02 -7.464794660000000e-04 6.061479300000000e-02 -4.034931650000000e-03
            4.406225600000000e-02 -3.686467460000000e-02 4.761106150000000e-01 8.232266990000001e-02 6.060444710000000e-02 -4.034272770000000e-03 6.358611840000000e-02 3.562696410000000e-03
462614679.0000000000 5.738493650000000e-02 8.322768850000000e-03 6.194948850000000e-02 9.669600340000001e-03 4.820001550000000e-01 -3.079858410000000e-02 3.388502050000000e-02 -4.872659460000000e-02
            6.194525830000000e-02 9.662925800000000e-03 5.780474460000000e-02 5.307898720000000e-03 3.431679330000000e-02 -4.867421660000000e-02 4.815352730000000e-01 -3.148438600000000e-02
            4.819823750000000e-01 -3.079566840000000e-02 3.431302090000000e-02 -4.868055450000000e-02 6.530386970000000e-02 1.028046270000000e-02 6.157096450000000e-02 7.247105810000000e-03
            3.390211070000000e-02 -4.871377820000000e-02 4.815350090000000e-01 -3.147551020000000e-02 6.156976440000000e-02 7.225381770000000e-03 6.468629310000000e-02 1.453971350000000e-02
463114262.0000000000 6.430749240000000e-02 1.800967510000000e-02 6.798783379999999e-02 1.878803840000000e-02 4.604027020000000e-01 -1.423436140000000e-01 2.030157450000000e-02 -5.739621820000000e-02
            6.796670650000000e-02 1.878806810000000e-02 6.472531580000000e-02 1.502149660000000e-02 2.072817170000000e-02 -5.747347030000000e-02 4.598049400000000e-01 -1.428832630000000e-01
            4.604123150000000e-01 -1.423385210000000e-01 2.072196150000000e-02 -5.746969490000000e-02 7.139824509999999e-02 1.964495360000000e-02 6.757599780000000e-02 1.676628180000000e-02
            2.028766120000000e-02 -5.739706140000000e-02 4.597986700000000e-01 -1.428931010000000e-01 6.758227690000000e-02 1.676380330000000e-02 7.075118449999999e-02 2.387802580000000e-02
463613845.0000000000 7.488671330000000e-02 2.343941000000000e-02 7.759448070000000e-02 2.408818780000000e-02 4.133789020000000e-01 -2.450373340000000e-01 4.542028400000000e-03 -6.180551110000000e-02
            7.757036710000000e-02 2.408776170000000e-02 7.532786830000000e-02 2.045097410000000e-02 4.967772140000000e-03 -6.199770450000000e-02 4.126585930000000e-01 -2.454270820000000e-01
            4.133811920000000e-01 -2.450339400000000e-01 4.960260660000000e-03 -6.198057930000000e-02 8.112883700000000e-02 2.523830130000000e-02 7.721271280000000e-02 2.243089440000000e-02
            4.550392300000000e-03 -6.179527770000000e-02 4.126845860000000e-01 -2.454227710000000e-01 7.722563620000000e-02 2.243987130000000e-02 8.045129660000000e-02 2.948604720000000e-02
464113428.0000000000 8.672574790000000e-02 2.344206240000000e-02 8.853683350000000e-02 2.437225050000000e-02 3.441848890000000e-01 -3.332779130000000e-01 -1.174096510000000e-02 -6.155909570000000e-02
            8.854426360000001e-02 2.438187230000000e-02 8.719072470000000e-02 2.045753180000000e-02 -1.139769170000000e-02 -6.186210800000000e-02 3.434254720000000e-01 -3.335018660000000e-01
            3.442110340000000e-01 -3.332617240000000e-01 -1.137159250000000e-02 -6.186925710000000e-02 9.228668740000000e-02 2.590668460000000e-02 8.827039380000000e-02 2.307496270000000e-02
            -1.173173460000000e-02 -6.156849260000000e-02 3.434111590000000e-01 -3.334990270000000e-01 8.827344850000000e-02 2.305453550000000e-02 9.160045470000000e-02 3.014127620000000e-02
464613011.0000000000 9.722299080000001e-02 1.808760200000000e-02 9.841541510000000e-02 1.967848800000000e-02 2.571512930000000e-01 -4.027280730000000e-01 -2.711122600000000e-02 -5.700204760000000e-02
            9.839877950000001e-02 1.967354550000000e-02 9.772335000000000e-02 1.509700120000000e-02 -2.683543850000000e-02 -5.738970090000000e-02 2.563251830000000e-01 -4.027480560000000e-01
            2.571461110000000e-01 -4.027213760000000e-01 -2.684189380000000e-02 -5.739517760000000e-02 1.025207430000000e-01 2.155746160000000e-02 9.831048470000001e-02 1.866596380000000e-02
            -2.710371520000000e-02 -5.702093790000000e-02 2.563419040000000e-01 -4.027621880000000e-01 9.832659790000001e-02 1.867221490000000e-02 1.018161820000000e-01 2.579860250000000e-02
465112594.0000000000 1.041555590000000e-01 8.605185410000001e-03 1.051022280000000e-01 1.105759540000000e-02 1.571091070000000e-01 -4.502624970000000e-01 -4.048722990000000e-02 -4.890236900000000e-02
            1.050970140000000e-01 1.107196220000000e-02 1.046742390000000e-01 5.581813470000000e-03 -4.032393230000000e-02 -4.935147680000000e-02 1.563026180000000e-01 -4.501016100000000e-01
            1.571194080000000e-01 -4.502390730000000e-01 -4.031168220000000e-02 -4.935198880000000e-02 1.097001880000000e-01 1.323909810000000e-02 1.052080000000000e-01 1.028688630000000e-02
            -4.047386560000000e-02 -4.891896550000000e-02 1.563098310000000e-01 -4.501040980000000e-01 1.052217020000000e-01 1.028697000000000e-02 1.089835510000000e-01 1.749089090000000e-02
465612177.0000000000 1.061211800000000e-01 -2.990765760000000e-03 1.072142070000000e-01 3.923528160000000e-04 4.920242350000000e-02 -4.738178390000000e-01 -5.135153920000000e-02 -3.817300650000000e-02
            1.072207300000000e-01 3.921195450000000e-04 1.066408530000000e-01 -6.022993690000000e-03 -5.129293950000000e-02 -3.861977380000000e-02 4.845050810000000e-02 -4.734927190000000e-01
            4.922060370000000e-02 -4.738364160000000e-01 -5.129704740000000e-02 -3.862997820000000e-02 1.124429160000000e-01 2.684333270000000e-03 1.075817870000000e-01 -2.549485130000000e-04
            -5.134582050000000e-02 -3.816574550000000e-02 4.846330730000000e-02 -4.734888490000000e-01 1.075875790000000e-01 -2.503675440000000e-04 1.116872700000000e-01 6.993764640000000e-03
466111760.0000000000 1.026887100000000e-01 -1.426035710000000e-02 1.043400570000000e-01 -1.008222670000000e-02 -6.123443150000000e-02 -4.723573890000000e-01 -5.953904100000000e-02 -2.549619550000000e-02
            1.043476070000000e-01 -1.009565190000000e-02 1.032046980000000e-01 -1.730993700000000e-02 -5.958906170000000e-02 -2.595541130000000e-02 -6.188014340000000e-02 -4.718878620000000e-01
            -6.123628570000000e-02 -4.723782230000000e-01 -5.959492370000000e-02 -2.597017340000000e-02 1.102333220000000e-01 -7.838213659999999e-03 1.049753040000000e-01 -1.069764410000000e-02
            -5.955706890000000e-02 -2.549282700000000e-02 -6.188688960000000e-02 -4.718727780000000e-01 1.049800080000000e-01 -1.070878870000000e-02 1.094764880000000e-01 -3.521209460000000e-03
466611343.0000000000 9.449483890000000e-02 -2.287213910000000e-02 9.707267880000001e-02 -1.819601530000000e-02 -1.687635060000000e-01 -4.457957560000000e-01 -6.501828340000000e-02 -1.135446290000000e-02
            9.706294610000001e-02 -1.819066360000000e-02 9.499709260000000e-02 -2.593391870000000e-02 -6.517689320000000e-02 -1.181975560000000e-02 -1.692684610000000e-01 -4.451699270000000e-01
            -1.687548760000000e-01 -4.457874320000000e-01 -6.517037280000000e-02 -1.180703720000000e-02 1.035875830000000e-01 -1.617796760000000e-02 9.790543680000000e-02 -1.884150210000000e-02
            -6.500358530000000e-02 -1.135082170000000e-02 -1.692941260000000e-01 -4.451581460000000e-01 9.790855560000000e-02 -1.883815730000000e-02 1.028532770000000e-01 -1.185677410000000e-02
467110926.0000000000 8.323851309999999e-02 -2.692970640000000e-02 8.687321680000000e-02 -2.209711230000000e-02 -2.677923780000000e-01 -3.950276670000000e-01 -6.757302110000001e-02 4.002476820000000e-03
            8.687411570000000e-02 -2.209821740000000e-02 8.372717520000000e-02 -2.997984240000000e-02 -6.783388070000000e-02 3.596892760000000e-03 -2.681489740000000e-01 -3.942808590000000e-01
            -2.677989110000000e-01 -3.950209020000000e-01 -6.783476190000000e-02 3.587401250000000e-03 9.391632790000000e-02 -2.055544200000000e-02 8.785819089999999e-02 -2.290113510000000e-02
            -6.757500919999999e-02 4.004739050000000e-03 -2.681531890000000e-01 -3.942757010000000e-01 8.785488260000000e-02 -2.289828880000000e-02 9.320933150000001e-02 -1.621921660000000e-02
467610509.0000000000 7.128313520000000e-02 -2.544940910000000e-02 7.597810689999999e-02 -2.091592310000000e-02 -3.527957430000000e-01 -3.222393560000000e-01 -6.676670540000000e-02 2.029147940000000e-02
            7.599056320000000e-02 -2.090921040000000e-02 7.176401070000001e-02 -2.849683240000000e-02 -6.715846990000000e-02 1.993212410000000e-02 -3.529623890000000e-01 -3.214183670000000e-01
            -3.527824480000000e-01 -3.222160900000000e-01 -6.715463700000000e-02 1.993443890000000e-02 8.337103240000000e-02 -1.997578640000000e-02 7.697764050000000e-02 -2.189115300000000e-02
            -6.677568450000000e-02 2.029324330000000e-02 -3.529548100000000e-01 -3.214266800000000e-01 7.698899620000001e-02 -2.189329870000000e-02 8.265066340000000e-02 -1.563601670000000e-02
468110092.0000000000 6.122134770000000e-02 -1.866599550000000e-02 6.683830060000000e-02 -1.478785850000000e-02 -4.185822430000000e-01 -2.310649900000000e-01 -6.204477730000000e-02 3.687056550000000e-02
            6.684075239999999e-02 -1.478228880000000e-02 6.169182380000000e-02 -2.169970890000000e-02 -6.250827630000000e-02 3.662614340000000e-02 -4.185979690000000e-01 -2.302380540000000e-01
            -4.185954730000000e-01 -2.310607990000000e-01 -6.249625770000000e-02 3.661406660000000e-02 7.430308560000000e-02 -1.450291860000000e-02 6.773044709999999e-02 -1.594092970000000e-02
            -6.204669080000000e-02 3.689117520000000e-02 -4.185906000000000e-01 -2.302391260000000e-01 6.772594140000000e-02 -1.593923120000000e-02 7.360648660000001e-02 -1.018561840000000e-02
468609675.0000000000 5.537149730000000e-02 -7.989125210000000e-03 6.161748100000000e-02 -5.055922980000000e-03 -4.610043700000000e-01 -1.265789660000000e-01 -5.283893600000000e-02 5.266937270000000e-02
            6.161019800000000e-02 -5.064504000000000e-03 5.584816180000000e-02 -1.103583790000000e-02 -5.336485620000000e-02 5.252687980000000e-02 -4.607927640000000e-01 -1.257779110000000e-01
            -4.610207850000000e-01 -1.265753590000000e-01 -5.336837190000000e-02 5.251740280000000e-02 6.885518070000000e-02 -5.381831200000000e-03 6.223548380000000e-02 -6.304183920000000e-03
            -5.283138760000000e-02 5.267036050000000e-02 -4.607989300000000e-01 -1.257732030000000e-01 6.222828110000000e-02 -6.303351160000000e-03 6.815421939999999e-02 -1.081597210000000e-03
469109258.0000000000 5.508463690000000e-02 4.141337720000000e-03 6.155604840000000e-02 6.013656390000000e-03 -4.772591510000000e-01 -1.498407020000000e-02 -3.913982650000000e-02 6.613943040000000e-02
            6.156576020000000e-02 6.016286110000000e-03 5.555566660000000e-02 1.127584230000000e-03 -3.970916940000000e-02 6.614220840000000e-02 -4.768612360000000e-01 -1.426261760000000e-02
            -4.772617720000000e-01 -1.499694280000000e-02 -3.971158820000000e-02 6.614317070000000e-02 6.836707670000000e-02 5.236919670000000e-03 6.182284840000000e-02 4.858769450000000e-03
            -3.914262030000000e-02 6.614622730000000e-02 -4.768667000000000e-01 -1.426440150000000e-02 6.181612010000000e-02 4.851864040000000e-03 6.766626320000001e-02 9.526219300000000e-03
469608841.0000000000 6.039197270000000e-02 1.494205020000000e-02 6.673021440000000e-02 1.583029320000000e-02 -4.665008810000000e-01 9.689373350000000e-02 -2.164494960000000e-02 7.573066069999999e-02
            6.672199730000000e-02 1.581961690000000e-02 6.086032770000000e-02 1.194962570000000e-02 -2.221141670000000e-02 7.586410650000000e-02 -4.659407230000000e-01 9.752859160000001e-02
            -4.664984940000000e-01 9.687837620000000e-02 -2.222493560000000e-02 7.587446920000000e-02 7.292825170000000e-02 1.491027730000000e-02 6.660566210000000e-02 1.496789460000000e-02
            -2.164723690000000e-02 7.573229989999999e-02 -4.659533060000000e-01 9.751048610000000e-02 6.660263199999999e-02 1.495405340000000e-02 7.222565070000000e-02 1.914706630000000e-02
470108424.0000000000 6.997150260000000e-02 2.201454950000000e-02 7.587472480000000e-02 2.205474270000000e-02 -4.297881700000000e-01 2.024405260000000e-01 -1.768488490000000e-03 8.019225490000000e-02
            7.588709859999999e-02 2.206490330000000e-02 7.048949309999999e-02 1.903407180000000e-02 -2.296737560000000e-03 8.049490660000000e-02 -4.291120330000000e-01 2.029152880000000e-01
            -4.297989290000000e-01 2.024432200000000e-01 -2.282012290000000e-03 8.049052230000001e-02 8.146721429999999e-02 2.130133200000000e-02 7.548497400000000e-02 2.174236110000000e-02
            -1.774623190000000e-03 8.019496810000000e-02 -4.291155000000000e-01 2.029270670000000e-01 7.547981130000000e-02 2.175473370000000e-02 8.071726810000000e-02 2.553006900000000e-02
470608007.0000000000 8.160882580000001e-02 2.385683440000000e-02 8.689363159999999e-02 2.335313420000000e-02 -3.698436200000000e-01 2.958095350000000e-01 1.870069400000000e-02 7.905721300000000e-02
            8.689386630000000e-02 2.336559950000000e-02 8.212903689999999e-02 2.087424600000000e-02 1.824928490000000e-02 7.947385340000000e-02 -3.690768090000000e-01 2.960943720000000e-01
            -3.698490430000000e-01 2.958113740000000e-01 1.825749790000000e-02 7.946589000000000e-02 9.198390660000000e-02 2.307616000000000e-02 8.639867960000000e-02 2.376363150000000e-02
            1.869898800000000e-02 7.905897860000000e-02 -3.690719290000000e-01 2.961024920000000e-01 8.641053329999999e-02 2.376287870000000e-02 9.119413580000001e-02 2.730857530000000e-02
471107590.0000000000 9.264230599999999e-02 2.016431410000000e-02 9.728744120000000e-02 1.944520930000000e-02 -2.905427960000000e-01 3.722473430000000e-01 3.800662580000000e-02 7.254581900000000e-02
            9.729189520000001e-02 1.944190840000000e-02 9.317986270000000e-02 1.719018040000000e-02 3.767773240000000e-02 7.306929270000000e-02 -2.897261630000000e-01 3.723519790000000e-01
            -2.905291820000000e-01 3.722330550000000e-01 3.766527420000000e-02 7.305085040000001e-02 1.020848180000000e-01 1.990145080000000e-02 9.701276030000000e-02 2.070180810000000e-02
            3.800232920000000e-02 7.254079200000001e-02 -2.897231270000000e-01 3.723530130000000e-01 9.701280290000000e-02 2.069977350000000e-02 1.012983050000000e-01 2.415032030000000e-02
471607173.0000000000 1.007201410000000e-01 1.192585600000000e-02 1.047742500000000e-01 1.123737800000000e-02 -1.964340490000000e-01 4.282225070000000e-01 5.477149840000000e-02 6.154513760000000e-02
            1.047734030000000e-01 1.122614960000000e-02 1.012594270000000e-01 8.925438839999999e-03 5.456054590000000e-02 6.211299420000000e-02 -1.956051660000000e-01 4.281428440000000e-01
            -1.964329420000000e-01 4.282127970000000e-01 5.455786830000000e-02 6.210886870000000e-02 1.096550510000000e-01 1.258208750000000e-02 1.050619700000000e-01 1.332544990000000e-02
            5.476560890000000e-02 6.152910230000000e-02 -1.956160470000000e-01 4.281453830000000e-01 1.050690890000000e-01 1.332725080000000e-02 1.088270470000000e-01 1.682645800000000e-02
472106756.0000000000 1.040793210000000e-01 9.187045839999999e-04 1.078308660000000e-01 4.882420840000000e-04 -9.245567740000001e-02 4.613014350000000e-01 6.816428490000000e-02 4.711186580000000e-02
            1.078047960000000e-01 4.799101310000000e-04 1.046584720000000e-01 -2.085605620000000e-03 6.812632260000000e-02 4.771943790000000e-02 -9.168175130000000e-02 4.610265620000000e-01
            -9.245926070000000e-02 4.612998600000000e-01 6.812472840000000e-02 4.772046630000000e-02 1.131357290000000e-01 2.687961400000000e-03 1.089868950000000e-01 3.258091860000000e-03
            6.818565650000000e-02 4.713396830000000e-02 -9.168057470000000e-02 4.610411230000000e-01 1.089928610000000e-01 3.230262550000000e-03 1.122867320000000e-01 6.953749400000000e-03
472606339.0000000000 1.020927150000000e-01 -1.043704880000000e-02 1.057467110000000e-01 -1.057903800000000e-02 1.622868770000000e-02 4.700121680000000e-01 7.790115060000000e-02 3.028468020000000e-02
            1.057285360000000e-01 -1.058770780000000e-02 1.026690570000000e-01 -1.345191390000000e-02 7.800204810000000e-02 3.090483690000000e-02 1.693375510000000e-02 4.695687640000000e-01
            1.623458060000000e-02 4.699866460000000e-01 7.799407150000000e-02 3.089770580000000e-02 1.118220910000000e-01 -7.644031880000000e-03 1.080704570000000e-01 -7.399874470000000e-03
            7.790413509999999e-02 3.028988110000000e-02 1.695363950000000e-02 4.695734650000000e-01 1.080770740000000e-01 -7.414066850000000e-03 1.109631150000000e-01 -3.336984280000000e-03
473105922.0000000000 9.508404320000000e-02 -1.971194180000000e-02 9.888901390000000e-02 -1.966774970000000e-02 1.243084970000000e-01 4.537791770000000e-01 8.384534260000000e-02 1.182634330000000e-02
            9.888022170000001e-02 -1.967560950000000e-02 9.566909379999999e-02 -2.274216090000000e-02 8.407816490000000e-02 1.241462010000000e-02 1.248823460000000e-01 4.532097000000000e-01
            1.243088740000000e-01 4.537828100000000e-01 8.405621119999999e-02 1.240685420000000e-02 1.060248510000000e-01 -1.622844980000000e-02 1.025926540000000e-01 -1.643520520000000e-02
            8.384069530000000e-02 1.180845720000000e-02 1.248911910000000e-01 4.531911140000000e-01 1.025952470000000e-01 -1.643578620000000e-02 1.051886810000000e-01 -1.189942930000000e-02
473605505.0000000000 8.448824870000000e-02 -2.485302730000000e-02 8.860147620000000e-02 -2.483011890000000e-02 2.262390330000000e-01 4.130687290000000e-01 8.586707440000001e-02 -7.731660730000000e-03
            8.859440820000000e-02 -2.482099960000000e-02 8.503300350000000e-02 -2.788590220000000e-02 8.623530170000000e-02 -7.200785000000000e-03 2.266769370000000e-01 4.123596590000000e-01
            2.262416470000000e-01 4.130503230000000e-01 8.623789320000000e-02 -7.201395260000000e-03 9.702308490000000e-02 -2.119891400000000e-02 9.372857980000000e-02 -2.196225090000000e-02
            8.585777330000000e-02 -7.724172440000000e-03 2.266764590000000e-01 4.123508590000000e-01 9.373762710000000e-02 -2.196019340000000e-02 9.618608830000000e-02 -1.688891160000000e-02
474105088.0000000000 7.252575009999999e-02 -2.457857550000000e-02 7.697111240000000e-02 -2.483586770000000e-02 3.164324250000000e-01 3.494975640000000e-01 8.371616300000000e-02 -2.789128330000000e-02
            7.697358310000001e-02 -2.484206510000000e-02 7.306646250000000e-02 -2.760862650000000e-02 8.418266930000000e-02 -2.744465420000000e-02 3.166777120000000e-01 3.486987520000000e-01
            3.164318500000000e-01 3.494891450000000e-01 8.419369430000000e-02 -2.744883810000000e-02 8.673275860000000e-02 -2.149481590000000e-02 8.344022700000001e-02 -2.279799940000000e-02
            8.368887000000000e-02 -2.788131500000000e-02 3.167009850000000e-01 3.487094930000000e-01 8.343990749999999e-02 -2.281278880000000e-02 8.591023750000000e-02 -1.717265040000000e-02
474604671.0000000000 6.182776540000000e-02 -1.879351590000000e-02 6.651071270000000e-02 -1.958731900000000e-02 3.895493370000000e-01 2.661215250000000e-01 7.686557650000000e-02 -4.789275760000000e-02
            6.648736730000000e-02 -1.958320520000000e-02 6.236329590000000e-02 -2.182819560000000e-02 7.745386660000000e-02 -4.757232660000000e-02 3.896134440000000e-01 2.652919550000000e-01
            3.895411260000000e-01 2.661177260000000e-01 7.744473060000000e-02 -4.756640360000000e-02 7.747241370000001e-02 -1.692927300000000e-02 7.405713660000000e-02 -1.881226860000000e-02
            7.685381790000000e-02 -4.789420000000000e-02 3.896104440000000e-01 2.653002270000000e-01 7.405228229999999e-02 -1.882446610000000e-02 7.666409959999999e-02 -1.261104770000000e-02
475104254.0000000000 5.485437110000000e-02 -8.617521140000001e-03 5.950429210000000e-02 -1.013726340000000e-02 4.409854300000000e-01 1.675005850000000e-01 6.495444160000000e-02 -6.661451340000001e-02
            5.949290960000000e-02 -1.013764090000000e-02 5.538093350000000e-02 -1.163424190000000e-02 6.563108060000000e-02 -6.643044850000000e-02 4.408405940000000e-01 1.666720890000000e-01
            4.409835620000000e-01 1.674982130000000e-01 6.562256560000000e-02 -6.642646020000000e-02 7.143891300000001e-02 -8.497138669999999e-03 6.774669680000001e-02 -1.095777860000000e-02
            6.495469610000000e-02 -6.660245120000000e-02 4.408290570000000e-01 1.666695000000000e-01 6.772591800000000e-02 -1.094793460000000e-02 7.064257670000000e-02 -4.202782680000000e-03
475603837.0000000000 5.327395150000000e-02 3.733320580000000e-03 5.756102320000000e-02 1.440590560000000e-03 4.674107580000000e-01 5.940420390000000e-02 4.804872630000000e-02 -8.245753970000000e-02
            5.756236130000000e-02 1.445232730000000e-03 5.381385040000000e-02 7.276859840000000e-04 4.875194030000000e-02 -8.244447610000000e-02 4.670912240000000e-01 5.865593720000000e-02
            4.673961810000000e-01 5.941524890000000e-02 4.876337940000000e-02 -8.245133280000000e-02 7.010171590000000e-02 1.842047550000000e-03 6.598699810000000e-02 -1.084165610000000e-03
            4.803171750000000e-02 -8.244415360000000e-02 4.670917930000000e-01 5.865668840000000e-02 6.598853709999999e-02 -1.088548590000000e-03 6.929860940000000e-02 6.098717930000000e-03
476103420.0000000000 5.753252100000000e-02 1.549380690000000e-02 6.111386630000000e-02 1.254001360000000e-02 4.673107690000000e-01 -5.155747300000000e-02 2.682332550000000e-02 -9.376063190000000e-02
            6.110649360000000e-02 1.255683820000000e-02 5.805279890000000e-02 1.252237920000000e-02 2.754272120000000e-02 -9.392319500000000e-02 4.668135420000000e-01 -5.220650240000000e-02
            4.673052180000000e-01 -5.153648700000000e-02 2.755481670000000e-02 -9.392214940000000e-02 7.384693900000000e-02 1.162001000000000e-02 6.919192139999999e-02 8.309739130000000e-03
            2.683016260000000e-02 -9.375931640000000e-02 4.668177750000000e-01 -5.222141920000000e-02 6.918227900000000e-02 8.329455400000000e-03 7.302112980000000e-02 1.586492740000000e-02
476603003.0000000000 6.663239810000000e-02 2.405979890000000e-02 6.921578360000000e-02 2.071915670000000e-02 4.410712620000000e-01 -1.587288080000000e-01 2.817721020000000e-03 -9.914486710000001e-02
            6.922123430000000e-02 2.070723440000000e-02 6.718367420000000e-02 2.108524320000000e-02 3.492952380000000e-03 -9.948153310000001e-02 4.404457560000000e-01 -1.592564870000000e-01
            4.410638010000000e-01 -1.587274010000000e-01 3.481569400000000e-03 -9.949548560000000e-02 8.178099840000000e-02 1.855309630000000e-02 7.652235840000000e-02 1.499556750000000e-02
            2.823997460000000e-03 -9.914419369999999e-02 4.404344960000000e-01 -1.592610010000000e-01 7.652804410000000e-02 1.499248910000000e-02 8.090967180000000e-02 2.278318270000000e-02
477102585.0000000000 7.853111120000000e-02 2.756974550000000e-02 7.997968699999999e-02 2.421494840000000e-02 3.908046710000000e-01 -2.560545760000000e-01 -2.201503070000000e-02 -9.794641910000000e-02
            7.997235250000000e-02 2.420925410000000e-02 7.912015550000000e-02 2.460248660000000e-02 -2.144827310000000e-02 -9.844968649999999e-02 3.900613370000000e-01 -2.564305470000000e-01
            3.908159420000000e-01 -2.560664210000000e-01 -2.144550490000000e-02 -9.846720420000001e-02 9.206294969999999e-02 2.102520620000000e-02 8.618497770000000e-02 1.735547610000000e-02
            -2.200684560000000e-02 -9.794453110000000e-02 3.900604190000000e-01 -2.564318260000000e-01 8.617084760000000e-02 1.739006160000000e-02 9.117639340000000e-02 2.525690100000000e-02
477602168.0000000000 9.062828370000001e-02 2.539643670000000e-02 9.095259510000001e-02 2.247625120000000e-02 3.199078960000000e-01 -3.384874860000000e-01 -4.563747770000000e-02 -9.032272910000000e-02
            9.094716429999999e-02 2.248953260000000e-02 9.123632320000000e-02 2.243719870000000e-02 -4.520813680000000e-02 -9.095497000000000e-02 3.190951700000000e-01 -3.386833620000000e-01
            3.199099470000000e-01 -3.384949470000000e-01 -4.521495450000000e-02 -9.095048710000000e-02 1.023626840000000e-01 1.855134970000000e-02 9.585355020000000e-02 1.489625740000000e-02
            -4.564031390000000e-02 -9.030567610000000e-02 3.191046860000000e-01 -3.386770850000000e-01 9.585836880000000e-02 1.490100580000000e-02 1.014612290000000e-01 2.277200580000000e-02
478101751.0000000000 1.003946120000000e-01 1.812869670000000e-02 9.979189530000000e-02 1.606993600000000e-02 2.326033830000000e-01 -4.021152270000000e-01 -6.636661760000000e-02 -7.711376200000000e-02
            9.979294140000000e-02 1.607817450000000e-02 1.010034450000000e-01 1.515141180000000e-02 -6.613314160000000e-02 -7.784308830000000e-02 2.317708530000000e-01 -4.021128680000000e-01
            2.325969100000000e-01 -4.021179260000000e-01 -6.612449730000000e-02 -7.783711259999999e-02 1.104695890000000e-01 1.167055160000000e-02 1.033811290000000e-01 8.159257919999999e-03
            -6.637663010000000e-02 -7.711042220000000e-02 2.317817610000000e-01 -4.021223210000000e-01 1.033836140000000e-01 8.155500479999999e-03 1.095545660000000e-01 1.591944330000000e-02
478601334.0000000000 1.058358130000000e-01 7.413823030000000e-03 1.046792780000000e-01 6.512316970000000e-03 1.335576650000000e-01 -4.441131710000000e-01 -8.308621930000000e-02 -5.955492660000000e-02
            1.046899110000000e-01 6.514261100000000e-03 1.064620810000000e-01 4.404739390000000e-03 -8.301832950000000e-02 -6.033040740000000e-02 1.327507690000000e-01 -4.439342070000000e-01
            1.335439660000000e-01 -4.441048320000000e-01 -8.301734420000000e-02 -6.033196170000000e-02 1.146790120000000e-01 1.887261670000000e-03 1.070760800000000e-01 -1.383540760000000e-03
            -8.311329770000001e-02 -5.954906090000000e-02 1.327466890000000e-01 -4.439173490000000e-01 1.070642000000000e-01 -1.367576790000000e-03 1.137305860000000e-01 6.153281260000000e-03
479100917.0000000000 1.059349480000000e-01 -4.516709980000000e-03 1.047220950000000e-01 -4.109003230000000e-03 2.770324530000000e-02 -4.626079690000000e-01 -9.524966479999999e-02 -3.892936240000000e-02
            1.047175660000000e-01 -4.137883090000000e-03 1.065858600000000e-01 -7.529281970000000e-03 -9.534311480000000e-02 -3.969072850000000e-02 2.697950060000000e-02 -4.622307700000000e-01
            2.771237500000000e-02 -4.626029870000000e-01 -9.534230810000000e-02 -3.968218280000000e-02 1.141218600000000e-01 -8.752968030000001e-03 1.060929390000000e-01 -1.170982230000000e-02
            -9.524392010000000e-02 -3.892220760000000e-02 2.697728940000000e-02 -4.622292880000000e-01 1.060907700000000e-01 -1.171426460000000e-02 1.131847460000000e-01 -4.456292910000000e-03
479600500.0000000000 1.007408020000000e-01 -1.518995600000000e-02 9.995516450000000e-02 -1.354998800000000e-02 -7.974754980000000e-02 -4.566032240000000e-01 -1.025588730000000e-01 -1.624632720000000e-02
            9.996156470000001e-02 -1.355410120000000e-02 1.013876070000000e-01 -1.819597210000000e-02 -1.028440330000000e-01 -1.698011540000000e-02 -8.038344390000000e-02 -4.560688940000000e-01
            -7.975407090000000e-02 -4.566028770000000e-01 -1.028449570000000e-01 -1.697719890000000e-02 1.088903800000000e-01 -1.804198360000000e-02 1.005510570000000e-01 -2.067997350000000e-02
            -1.025611790000000e-01 -1.624418980000000e-02 -8.037505289999999e-02 -4.560759520000000e-01 1.005551460000000e-01 -2.067870640000000e-02 1.079670750000000e-01 -1.375213280000000e-02
480100083.0000000000 9.135511180000000e-02 -2.232600870000000e-02 9.141125960000000e-02 -1.974873720000000e-02 -1.833927370000000e-01 -4.260812760000000e-01 -1.049722550000000e-01 7.627194510000000e-03
            9.140443220000000e-02 -1.976116710000000e-02 9.199183720000000e-02 -2.535344170000000e-02 -1.054352090000000e-01 6.959245280000000e-03 -1.838920530000000e-01 -4.254191030000000e-01
            -1.833892490000000e-01 -4.260912000000000e-01 -1.054234420000000e-01 6.933988360000000e-03 1.000926940000000e-01 -2.405527780000000e-02 9.149858120000000e-02 -2.636789990000000e-02
            -1.049782710000000e-01 7.614501900000000e-03 -1.838971300000000e-01 -4.254245570000000e-01 9.149641420000000e-02 -2.635533070000000e-02 9.915444570000000e-02 -1.973750270000000e-02
480599666.0000000000 7.974079780000000e-02 -2.443422490000000e-02 8.093663930000000e-02 -2.134537960000000e-02 -2.776445730000000e-01 -3.721522410000000e-01 -1.022453800000000e-01 3.194268040000000e-02
            8.093252580000000e-02 -2.134660880000000e-02 8.035511850000000e-02 -2.746706120000000e-02 -1.028531530000000e-01 3.138275110000000e-02 -2.779715940000000e-01 -3.713981780000000e-01
            -2.776419090000000e-01 -3.721618570000000e-01 -1.028547370000000e-01 3.137558780000000e-02 8.949568140000000e-02 -2.544340280000000e-02 8.075746230000000e-02 -2.743616850000000e-02
            -1.022396950000000e-01 3.194394690000000e-02 -2.779760160000000e-01 -3.714009100000000e-01 8.075111940000000e-02 -2.744467050000000e-02 8.857503170000000e-02 -2.111387150000000e-02
481099249.0000000000 6.844781229999999e-02 -2.098987490000000e-02 7.085201710000000e-02 -1.788137140000000e-02 -3.570504060000000e-01 -2.972986790000000e-01 -9.403223160000000e-02 5.582977450000000e-02
            7.085699210000000e-02 -1.787766270000000e-02 6.904786310000000e-02 -2.402284270000000e-02 -9.477032850000000e-02 5.541665600000000e-02 -3.571991820000000e-01 -2.964696860000000e-01
            -3.570573070000000e-01 -2.972930600000000e-01 -9.476510970000000e-02 5.541902120000000e-02 7.941562350000000e-02 -2.181346310000000e-02 7.058369330000000e-02 -2.356738890000000e-02
            -9.404212760000000e-02 5.584909310000000e-02 -3.572050750000000e-01 -2.964708350000000e-01 7.060061190000000e-02 -2.356448270000000e-02 7.850791629999999e-02 -1.750045190000000e-02
481598832.0000000000 6.003430770000000e-02 -1.272174530000000e-02 6.351531380000000e-02 -1.007306800000000e-02 -4.166870400000000e-01 -2.054417970000000e-01 -8.007147360000000e-02 7.805785510000000e-02
            6.351616190000001e-02 -1.008024810000000e-02 6.062828830000000e-02 -1.572536220000000e-02 -8.089139870000001e-02 7.781809069999999e-02 -4.166324260000000e-01 -2.046133530000000e-01
            -4.166718850000000e-01 -2.054535220000000e-01 -8.088725250000001e-02 7.782380340000000e-02 7.215830469999999e-02 -1.398000010000000e-02 6.327596580000000e-02 -1.553814430000000e-02
            -8.007970720000000e-02 7.806120780000000e-02 -4.166352820000000e-01 -2.046252030000000e-01 6.328918490000000e-02 -1.554980830000000e-02 7.128183539999999e-02 -9.667382710000000e-03
482098415.0000000000 5.643305800000000e-02 -1.509776120000000e-03 6.063720080000000e-02 2.881607750000000e-04 -4.527257570000000e-01 -1.019547500000000e-01 -6.041023600000000e-02 9.698865520000000e-02
            6.064023260000000e-02 2.853386020000000e-04 5.702816250000000e-02 -4.498895390000000e-03 -6.129444210000000e-02 9.695654430000000e-02 -4.524919590000000e-01 -1.011620560000000e-01
            -4.527352860000000e-01 -1.019575150000000e-01 -6.128025220000000e-02 9.695052999999999e-02 6.940161470000000e-02 -3.632743910000000e-03 6.044760720000000e-02 -5.099453030000000e-03
            -6.041255030000000e-02 9.698622520000000e-02 -4.525019370000000e-01 -1.011581510000000e-01 6.045584200000000e-02 -5.103608580000000e-03 6.852248129999999e-02 6.388641550000000e-04
482597998.0000000000 5.846803700000000e-02 1.008571040000000e-02 6.294195750000001e-02 1.081084670000000e-02 -4.630308430000000e-01 6.892184600000000e-03 -3.582786860000000e-02 1.108215230000000e-01
            6.293420990000000e-02 1.082869420000000e-02 5.907187310000000e-02 7.104361330000000e-03 -3.670428450000000e-02 1.110153050000000e-01 -4.626120010000000e-01 7.615093600000000e-03
            -4.630415110000000e-01 6.894405450000000e-03 -3.671218240000000e-02 1.110067450000000e-01 7.179908330000000e-02 6.764129450000000e-03 6.275632620000000e-02 5.353456930000000e-03
            -3.583345240000000e-02 1.108221800000000e-01 -4.626055200000000e-01 7.604317670000000e-03 6.276211810000000e-02 5.367645880000000e-03 7.088461030000000e-02 1.099745360000000e-02
483097581.0000000000 6.563004359999999e-02 1.933370400000000e-02 6.984762750000000e-02 1.904539730000000e-02 -4.473007920000000e-01 1.145157220000000e-01 -7.854509460000001e-03 1.180276800000000e-01
            6.986327959999999e-02 1.903584900000000e-02 6.622128660000000e-02 1.637855840000000e-02 -8.682624870000001e-03 1.184447070000000e-01 -4.467279600000000e-01 1.151174140000000e-01
            -4.472808370000000e-01 1.145157750000000e-01 -8.685809250000001e-03 1.184330330000000e-01 7.874512900000000e-02 1.481557120000000e-02 6.957743740000000e-02 1.342291120000000e-02
            -7.859032659999999e-03 1.180353300000000e-01 -4.467093400000000e-01 1.151152490000000e-01 6.957647060000000e-02 1.343233040000000e-02 7.780818959999999e-02 1.903581940000000e-02
483597164.0000000000 7.619840420000000e-02 2.419343580000000e-02 7.972829150000001e-02 2.312029730000000e-02 -4.069867900000000e-01 2.147152320000000e-01 2.140001930000000e-02 1.177179920000000e-01
            7.974805180000000e-02 2.311522820000000e-02 7.681435230000000e-02 2.125170980000000e-02 2.068307170000000e-02 1.183252830000000e-01 -4.062952300000000e-01 2.151555420000000e-01
            -4.069948340000000e-01 2.147403620000000e-01 2.067113590000000e-02 1.183067320000000e-01 8.859422720000000e-02 1.872582560000000e-02 7.925612360000001e-02 1.732509730000000e-02
            2.139926530000000e-02 1.177260280000000e-01 -4.063029920000000e-01 2.151611590000000e-01 7.923745390000000e-02 1.733321930000000e-02 8.764596790000000e-02 2.294221430000000e-02
484096747.0000000000 8.773624850000000e-02 2.366426460000000e-02 9.030141060000001e-02 2.224229350000000e-02 -3.450161020000000e-01 3.021589840000000e-01 4.964842970000000e-02 1.098966040000000e-01
            9.029543270000000e-02 2.224838140000000e-02 8.838986200000000e-02 2.072351230000000e-02 4.911163420000000e-02 1.106320480000000e-01 -3.442276900000000e-01 3.024260600000000e-01
            -3.450104960000000e-01 3.021620360000000e-01 4.911097160000000e-02 1.106415210000000e-01 9.913152579999999e-02 1.768840090000000e-02 8.950001980000000e-02 1.626109820000000e-02
            4.965643440000000e-02 1.098827110000000e-01 -3.442354650000000e-01 3.024338750000000e-01 8.951796970000001e-02 1.626934660000000e-02 9.813391150000000e-02 2.190140790000000e-02
484596330.0000000000 9.772986280000000e-02 1.795935950000000e-02 9.921925970000001e-02 1.669910530000000e-02 -2.651837150000000e-01 3.725818530000000e-01 7.489339250000000e-02 9.531209290000001e-02
            9.922811980000000e-02 1.670933480000000e-02 9.842081560000000e-02 1.500360180000000e-02 7.454077930000000e-02 9.618490740000001e-02 -2.643502070000000e-01 3.726761480000000e-01
            -2.651926840000000e-01 3.725785350000000e-01 7.454810500000000e-02 9.618863079999999e-02 1.079840380000000e-01 1.202061470000000e-02 9.808719570000000e-02 1.060104050000000e-02
            7.490151230000000e-02 9.532029590000000e-02 -2.643646110000000e-01 3.726517270000000e-01 9.808010280000000e-02 1.060668120000000e-02 1.069746430000000e-01 1.624539590000000e-02
485095913.0000000000 1.040515820000000e-01 8.367478980000001e-03 1.046297110000000e-01 7.811698440000000e-03 -1.718953680000000e-01 4.227894930000000e-01 9.566603260000001e-02 7.529968380000000e-02
            1.046429280000000e-01 7.826557580000001e-03 1.047547920000000e-01 5.402434770000000e-03 9.553537660000000e-02 7.622761650000000e-02 -1.710706020000000e-01 4.226783350000000e-01
            -1.718981000000000e-01 4.228018400000000e-01 9.551712060000001e-02 7.623648270000000e-02 1.133562120000000e-01 3.014228040000000e-03 1.030894440000000e-01 1.624922420000000e-03
            9.566764710000000e-02 7.530068090000000e-02 -1.710714370000000e-01 4.226649470000000e-01 1.030686450000000e-01 1.624955060000000e-03 1.123276260000000e-01 7.247462940000000e-03
485595496.0000000000 1.054286130000000e-01 -3.038537000000000e-03 1.054768580000000e-01 -2.494097070000000e-03 -6.985555950000000e-02 4.505479990000000e-01 1.110782790000000e-01 5.127887830000000e-02
            1.054885770000000e-01 -2.502359890000000e-03 1.061305680000000e-01 -6.033473390000000e-03 1.111680530000000e-01 5.223576750000000e-02 -6.907769140000000e-02 4.502284270000000e-01
            -6.987915800000000e-02 4.505381650000000e-01 1.111684700000000e-01 5.221546340000000e-02 1.141387510000000e-01 -7.393571620000000e-03 1.034572340000000e-01 -8.723368279999999e-03
            1.110872390000000e-01 5.126804050000000e-02 -6.908892090000000e-02 4.502451870000000e-01 1.034593230000000e-01 -8.742176740000000e-03 1.131070170000000e-01 -3.161349860000000e-03
486095079.0000000000 1.015399450000000e-01 -1.388119380000000e-02 1.015950460000000e-01 -1.202975770000000e-02 3.590884610000000e-02 4.544360690000000e-01 1.207176650000000e-01 2.458709660000000e-02
            1.015996370000000e-01 -1.203700610000000e-02 1.022530100000000e-01 -1.690218640000000e-02 1.210205100000000e-01 2.549523790000000e-02 3.660395750000000e-02 4.539858970000000e-01
            3.588600370000000e-02 4.544485870000000e-01 1.210337230000000e-01 2.551569570000000e-02 1.102252890000000e-01 -1.706754890000000e-02 9.907440000000001e-02 -1.824845560000000e-02
            1.207349190000000e-01 2.459700480000000e-02 3.658800350000000e-02 4.539842200000000e-01 9.906400410000001e-02 -1.825560480000000e-02 1.091780520000000e-01 -1.280095850000000e-02
486594662.0000000000 9.317440970000000e-02 -2.192809220000000e-02 9.381555499999999e-02 -1.878077440000000e-02 1.401153300000000e-01 4.340293930000000e-01 1.244393030000000e-01 -3.588292170000000e-03
            9.382876610000000e-02 -1.877184180000000e-02 9.387674300000000e-02 -2.494841390000000e-02 1.249421620000000e-01 -2.767837380000000e-03 1.406720530000000e-01 4.334129500000000e-01
            1.401070780000000e-01 4.340273510000000e-01 1.249433910000000e-01 -2.782477190000000e-03 1.024207210000000e-01 -2.394178330000000e-02 9.075313480000000e-02 -2.491212450000000e-02
            1.244304610000000e-01 -3.613952420000000e-03 1.406728570000000e-01 4.334102180000000e-01 9.076866510000001e-02 -2.491922530000000e-02 1.013936490000000e-01 -1.965037660000000e-02
487094245.0000000000 8.203569960000000e-02 -2.538278260000000e-02 8.385472730000000e-02 -2.123960970000000e-02 2.372530660000000e-01 3.899336070000000e-01 1.220026120000000e-01 -3.234503400000000e-02
            8.386089210000000e-02 -2.124337210000000e-02 8.273162140000000e-02 -2.842524560000000e-02 1.227115910000000e-01 -3.164074010000000e-02 2.376593170000000e-01 3.892099070000000e-01
            2.372575110000000e-01 3.899266690000000e-01 1.226987270000000e-01 -3.162568200000000e-02 9.237099820000000e-02 -2.654004030000000e-02 8.018597120000000e-02 -2.721404350000000e-02
            1.220012690000000e-01 -3.232656050000000e-02 2.376437550000000e-01 3.891956280000000e-01 8.019330730000000e-02 -2.720547730000000e-02 9.136147400000000e-02 -2.223247450000000e-02
487593828.0000000000 7.048534680000000e-02 -2.345678690000000e-02 7.385210510000000e-02 -1.881352520000000e-02 3.218012750000000e-01 3.240495240000000e-01 1.131809300000000e-01 -6.050266900000000e-02
            7.385229150000000e-02 -1.882029770000000e-02 7.115286990000000e-02 -2.648284320000000e-02 1.140312120000000e-01 -5.997143390000000e-02 3.220295260000000e-01 3.232260710000000e-01
            3.218193100000000e-01 3.240237940000000e-01 1.140432980000000e-01 -5.998111460000000e-02 8.230524630000000e-02 -2.425831470000000e-02 6.956313490000000e-02 -2.453743300000000e-02
            1.131901000000000e-01 -6.050194460000000e-02 3.220334010000000e-01 3.232262740000000e-01 6.955536000000000e-02 -2.455596430000000e-02 8.128363819999999e-02 -1.995059830000000e-02
488093411.0000000000 6.102822040000000e-02 -1.654484900000000e-02 6.611114799999999e-02 -1.200976360000000e-02 3.886362730000000e-01 2.397324520000000e-01 9.777230350000000e-02 -8.677046569999999e-02
            6.611012480000000e-02 -1.200751010000000e-02 6.167986050000000e-02 -1.954483880000000e-02 9.874204520000000e-02 -8.644685370000001e-02 3.886651890000000e-01 2.389246150000000e-01
            3.886353380000000e-01 2.397274460000000e-01 9.874279570000000e-02 -8.644441400000000e-02 7.443882770000000e-02 -1.758431830000000e-02 6.118158140000000e-02 -1.736669190000000e-02
            9.777394659999999e-02 -8.675081430000001e-02 3.886601860000000e-01 2.388948770000000e-01 6.119485020000000e-02 -1.734814640000000e-02 7.345469620000000e-02 -1.331260090000000e-02
488592994.0000000000 5.577777200000000e-02 -6.107002330000000e-03 6.247930410000000e-02 -2.373811160000000e-03 4.335426280000000e-01 1.418544100000000e-01 7.592610610000000e-02 -1.093814890000000e-01
            6.246192660000000e-02 -2.358391790000000e-03 5.643066710000000e-02 -9.092592170000000e-03 7.693971350000001e-02 -1.092975890000000e-01 4.333769900000000e-01 1.410206790000000e-01
            4.335441910000000e-01 1.418608430000000e-01 7.695126939999999e-02 -1.093083630000000e-01 7.064059430000000e-02 -8.032176980000000e-03 5.692564240000000e-02 -7.194654180000000e-03
            7.592389920000001e-02 -1.093875920000000e-01 4.333719570000000e-01 1.410370430000000e-01 5.690953470000000e-02 -7.201032480000000e-03 6.965215980000000e-02 -3.769982960000000e-03
489092577.0000000000 5.586452630000000e-02 5.476687220000000e-03 6.381462620000000e-02 7.825184960000000e-03 4.537792940000000e-01 3.627173970000000e-02 4.839806630000000e-02 -1.264748110000000e-01
            6.382781210000001e-02 7.825666770000000e-03 5.653225930000000e-02 2.497180090000000e-03 4.943057530000000e-02 -1.266408990000000e-01 4.534136140000000e-01 3.552471250000000e-02
            4.537764900000000e-01 3.626952270000000e-02 4.942588370000000e-02 -1.266274540000000e-01 7.180920730000000e-02 2.135184350000000e-03 5.767686430000000e-02 3.702108290000000e-03
            4.837561710000000e-02 -1.264809150000000e-01 4.534247560000000e-01 3.552564300000000e-02 5.767686660000000e-02 3.708279520000000e-03 7.082628080000000e-02 6.383219850000000e-03
489592160.0000000000 6.115531200000000e-02 1.556185110000000e-02 6.979332119999999e-02 1.614220870000000e-02 4.483699070000000e-01 -7.058530260000000e-02 1.672826720000000e-02 -1.363041180000000e-01
            6.979925680000000e-02 1.615906000000000e-02 6.183234290000000e-02 1.261730160000000e-02 1.771551110000000e-02 -1.367176060000000e-01 4.478559520000000e-01 -7.122431190000000e-02
            4.483699680000000e-01 -7.058163550000000e-02 1.772163230000000e-02 -1.367115200000000e-01 7.763973909999999e-02 1.050797710000000e-02 6.319391490000000e-02 1.293000010000000e-02
            1.672918750000000e-02 -1.363011860000000e-01 4.478510680000000e-01 -7.123104310000000e-02 6.319381440000001e-02 1.292703650000000e-02 7.661775770000000e-02 1.472776990000000e-02
490091743.0000000000 7.034146630000000e-02 2.199199930000000e-02 7.896536740000000e-02 2.064800910000000e-02 4.181913500000000e-01 -1.724642180000000e-01 -1.686016900000000e-02 -1.377874420000000e-01
            7.896988610000000e-02 2.066306200000000e-02 7.101905560000001e-02 1.904819180000000e-02 -1.597358060000000e-02 -1.384389880000000e-01 4.175254220000000e-01 -1.729798020000000e-01
            4.181749700000000e-01 -1.724912910000000e-01 -1.597648230000000e-02 -1.384396760000000e-01 8.669367910000000e-02 1.516288280000000e-02 7.208284750000001e-02 1.848533950000000e-02
            -1.685571790000000e-02 -1.377913420000000e-01 4.175361590000000e-01 -1.730049950000000e-01 7.208381200000000e-02 1.849387410000000e-02 8.565737820000000e-02 1.938263030000000e-02
490591326.0000000000 8.118652749999999e-02 2.343674220000000e-02 8.915534470000000e-02 2.033865260000000e-02 3.655104660000000e-01 -2.638335190000000e-01 -4.987179460000000e-02 -1.306913860000000e-01
            8.915774540000000e-02 2.033594080000000e-02 8.189941950000000e-02 2.049281470000000e-02 -4.916257370000000e-02 -1.315503570000000e-01 3.647511290000000e-01 -2.641808160000000e-01
            3.655051520000000e-01 -2.638532550000000e-01 -4.916497830000000e-02 -1.315522050000000e-01 9.686785380000000e-02 1.504643520000000e-02 8.225605699999999e-02 1.933520330000000e-02
            -4.985864410000000e-02 -1.306963400000000e-01 3.647491340000000e-01 -2.641779330000000e-01 8.225245360000000e-02 1.934867480000000e-02 9.579521460000000e-02 1.924292540000000e-02
491090909.0000000000 9.130152079999999e-02 1.981857320000000e-02 9.800812720000000e-02 1.531106090000000e-02 2.937437860000000e-01 -3.401449170000000e-01 -8.000229110000000e-02 -1.156683330000000e-01
            9.800583390000001e-02 1.532808290000000e-02 9.203579350000000e-02 1.686623450000000e-02 -7.951763160000000e-02 -1.166639100000000e-01 2.929463990000000e-01 -3.403072250000000e-01
            2.937621060000000e-01 -3.401424650000000e-01 -7.952093289999999e-02 -1.166643140000000e-01 1.058642440000000e-01 1.026720160000000e-02 9.142010540000001e-02 1.552822360000000e-02
            -8.001424440000000e-02 -1.156689900000000e-01 2.929491620000000e-01 -3.402865440000000e-01 9.141937590000000e-02 1.552252790000000e-02 1.047439260000000e-01 1.448327140000000e-02
491590492.0000000000 9.848456000000000e-02 1.208322730000000e-02 1.035446150000000e-01 6.769928740000000e-03 2.069572640000000e-01 -3.977882360000000e-01 -1.054395490000000e-01 -9.397362690000000e-02
            1.035648650000000e-01 6.777900630000000e-03 9.922973900000000e-02 9.126115230000001e-03 -1.051984930000000e-01 -9.505461420000000e-02 2.061225610000000e-01 -3.977458350000000e-01
            2.069536490000000e-01 -3.977762710000000e-01 -1.052082940000000e-01 -9.506268640000000e-02 1.116972100000000e-01 1.890955320000000e-03 9.761419170000001e-02 8.092139030000001e-03
            -1.054321350000000e-01 -9.397568510000000e-02 2.061214830000000e-01 -3.977415250000000e-01 9.760604770000000e-02 8.085463510000000e-03 1.105811470000000e-01 6.139563560000000e-03
492090075.0000000000 1.012597710000000e-01 2.035014040000000e-03 1.046052990000000e-01 -3.437648120000000e-03 1.095905790000000e-01 -4.341944450000000e-01 -1.249612300000000e-01 -6.717678400000000e-02
            1.045922020000000e-01 -3.436277520000000e-03 1.020172250000000e-01 -9.382159450000000e-04 -1.249963400000000e-01 -6.829758630000000e-02 1.087879730000000e-01 -4.339593440000000e-01
            1.095798830000000e-01 -4.341734620000000e-01 -1.249983510000000e-01 -6.829813520000000e-02 1.131470180000000e-01 -8.236186680000000e-03 9.962126060000000e-02 -1.221812900000000e-03
            -1.249599860000000e-01 -6.717342310000000e-02 1.087791510000000e-01 -4.339552630000000e-01 9.960340790000000e-02 -1.205762260000000e-03 1.120483910000000e-01 -3.981583900000000e-03
492589658.0000000000 9.908757300000000e-02 -8.113787759999999e-03 1.008496620000000e-01 -1.310034690000000e-02 6.462276340000000e-03 -4.475281830000000e-01 -1.379075430000000e-01 -3.682837800000000e-02
            1.008455100000000e-01 -1.310473960000000e-02 9.985319350000001e-02 -1.110881150000000e-02 -1.381825300000000e-01 -3.790812250000000e-02 5.740568890000000e-03 -4.471293780000000e-01
            6.471984220000000e-03 -4.475317940000000e-01 -1.381926800000000e-01 -3.792509980000000e-02 1.099376350000000e-01 -1.796493790000000e-02 9.705638920000000e-02 -1.030793790000000e-02
            -1.379148460000000e-01 -3.683042240000000e-02 5.741716290000000e-03 -4.471265340000000e-01 9.704142960000001e-02 -1.031830050000000e-02 1.088103240000000e-01 -1.370220540000000e-02
493089241.0000000000 9.248875910000000e-02 -1.610807640000000e-02 9.301087349999999e-02 -2.013815040000000e-02 -9.727361120000000e-02 -4.369478130000000e-01 -1.439126070000000e-01 -4.332118320000000e-03
            9.301049690000000e-02 -2.013691750000000e-02 9.323233530000000e-02 -1.911678790000000e-02 -1.444405110000000e-01 -5.335089310000000e-03 -9.788316730000000e-02 -4.363989690000000e-01
            -9.726804679999999e-02 -4.369570770000000e-01 -1.444437660000000e-01 -5.338341110000000e-03 1.026702150000000e-01 -2.529416160000000e-02 9.051394600000000e-02 -1.711875440000000e-02
            -1.439160520000000e-01 -4.334782860000000e-03 -9.788224750000001e-02 -4.363919300000000e-01 9.050932980000000e-02 -1.711824750000000e-02 1.015495640000000e-01 -2.098986500000000e-02
493588824.0000000000 8.284312169999999e-02 -2.016834070000000e-02 8.267897990000000e-02 -2.290874460000000e-02 -1.961652160000000e-01 -4.025942310000000e-01 -1.426853450000000e-01 2.903977270000000e-02
            8.268484869999999e-02 -2.291795760000000e-02 8.357557530000000e-02 -2.316709130000000e-02 -1.434676030000000e-01 2.816806860000000e-02 -1.966280770000000e-01 -4.019088060000000e-01
            -1.961750290000000e-01 -4.025999320000000e-01 -1.434570000000000e-01 2.817595080000000e-02 9.287136610000001e-02 -2.855521810000000e-02 8.148279130000000e-02 -2.006423950000000e-02
            -1.426884700000000e-01 2.902688520000000e-02 -1.966369420000000e-01 -4.019191350000000e-01 8.147154710000000e-02 -2.007337680000000e-02 9.176758060000000e-02 -2.426916530000000e-02
494088407.0000000000 7.231118340000001e-02 -1.926616980000000e-02 7.205429130000000e-02 -2.066215810000000e-02 -2.847008210000000e-01 -3.458431560000000e-01 -1.340381560000000e-01 6.195512040000000e-02
            7.205602400000000e-02 -2.068073890000000e-02 7.305331830000000e-02 -2.228508170000000e-02 -1.349858650000000e-01 6.125898720000000e-02 -2.849932820000000e-01 -3.450576760000000e-01
            -2.847065050000000e-01 -3.458367000000000e-01 -1.349908660000000e-01 6.126081550000000e-02 8.263113520000000e-02 -2.704084750000000e-02 7.197395340000000e-02 -1.843064060000000e-02
            -1.340386600000000e-01 6.194241130000000e-02 -2.849870960000000e-01 -3.450705530000000e-01 7.197896780000000e-02 -1.842049060000000e-02 8.155451190000000e-02 -2.274653190000000e-02
494587990.0000000000 6.328523260000000e-02 -1.350537720000000e-02 6.345615740000000e-02 -1.376333960000000e-02 -3.575766970000000e-01 -2.695664640000000e-01 -1.177711800000000e-01 9.280843210000000e-02
            6.346101630000001e-02 -1.375937890000000e-02 6.401600770000000e-02 -1.651115370000000e-02 -1.188748350000000e-01 9.235478250000000e-02 -3.576629480000000e-01 -2.687189320000000e-01
            -3.575707540000000e-01 -2.695542660000000e-01 -1.188860670000000e-01 9.236375240000000e-02 7.426492980000000e-02 -2.098942050000000e-02 6.423137449999999e-02 -1.239132020000000e-02
            -1.177846530000000e-01 9.280936880000000e-02 -3.576726870000000e-01 -2.687290290000000e-01 6.424301400000000e-02 -1.240488440000000e-02 7.320141049999999e-02 -1.670940960000000e-02
495087573.0000000000 5.791469300000000e-02 -4.127704160000000e-03 5.889491010000000e-02 -3.605093310000000e-03 -4.102371620000000e-01 -1.780493230000000e-01 -9.410322290000001e-02 1.197601270000000e-01
            5.887926410000000e-02 -3.592584600000000e-03 5.862883380000000e-02 -7.103034090000000e-03 -9.530096170000001e-02 1.195772240000000e-01 -4.101464570000000e-01 -1.772101200000000e-01
            -4.102347820000000e-01 -1.780399970000000e-01 -9.529425749999999e-02 1.195844260000000e-01 6.966324990000000e-02 -1.176184550000000e-02 6.016335810000000e-02 -3.341112640000000e-03
            -9.409458620000000e-02 1.197638430000000e-01 -4.101418100000000e-01 -1.772328750000000e-01 6.016720280000000e-02 -3.329883490000000e-03 6.860046470000000e-02 -7.510861780000000e-03
495587156.0000000000 5.749149190000000e-02 6.753831610000000e-03 5.945524330000000e-02 7.582662420000000e-03 -4.395197880000000e-01 -7.682576770000001e-02 -6.383756220000000e-02 1.406926260000000e-01
            5.946825500000000e-02 7.600920570000000e-03 5.819711720000000e-02 3.787177710000000e-03 -6.508648600000000e-02 1.408277830000000e-01 -4.392460890000000e-01 -7.605503740000000e-02
            -4.395106660000000e-01 -7.684377660000000e-02 -6.507357330000001e-02 1.408228110000000e-01 6.992281680000000e-02 -1.520223040000000e-03 6.080876160000000e-02 6.721378300000000e-03
            -6.384228520000000e-02 1.407052010000000e-01 -4.392460820000000e-01 -7.604121450000000e-02 6.078736370000000e-02 6.727367060000000e-03 6.886398689999999e-02 2.720167940000000e-03
496086739.0000000000 6.212846080000000e-02 1.661728600000000e-02 6.505932890000000e-02 1.728830740000000e-02 -4.439105640000000e-01 2.793126910000000e-02 -2.864509210000000e-02 1.537560300000000e-01
            6.506706990000000e-02 1.727318980000000e-02 6.285809180000000e-02 1.368436160000000e-02 -2.982962610000000e-02 1.541722330000000e-01 -4.434456210000000e-01 2.863202430000000e-02
            -4.438943220000000e-01 2.793441380000000e-02 -2.983589130000000e-02 1.541613560000000e-01 7.497119820000001e-02 7.353007730000000e-03 6.607263620000001e-02 1.539693650000000e-02
            -2.865716220000000e-02 1.537604560000000e-01 -4.434302550000000e-01 2.861667100000000e-02 6.605033520000000e-02 1.538839740000000e-02 7.386346730000000e-02 1.155618830000000e-02
496586322.0000000000 7.075769610000000e-02 2.325400710000000e-02 7.438048899999999e-02 2.332590260000000e-02 -4.236234900000000e-01 1.300577590000000e-01 9.180163970000000e-03 1.575803840000000e-01
            7.439042410000000e-02 2.333119050000000e-02 7.150263270000000e-02 2.032325450000000e-02 8.139542830000001e-03 1.582801950000000e-01 -4.230126790000000e-01 1.306352290000000e-01
            -4.236275060000000e-01 1.300594440000000e-01 8.123482050000000e-03 1.582808380000000e-01 8.353950260000000e-02 1.279829980000000e-02 7.473916680000001e-02 2.067652500000000e-02
            9.182721110000000e-03 1.575953610000000e-01 -4.230184080000000e-01 1.306142970000000e-01 7.474865870000000e-02 2.067869660000000e-02 8.241884950000000e-02 1.698537000000000e-02
497085905.0000000000 8.135577870000001e-02 2.523258200000000e-02 8.533294710000000e-02 2.447664750000000e-02 -3.805052240000000e-01 2.239144530000000e-01 4.693969420000000e-02 1.518044740000000e-01
            8.531828710000000e-02 2.448527710000000e-02 8.213226200000000e-02 2.231917260000000e-02 4.605699990000000e-02 1.527403240000000e-01 -3.797888500000000e-01 2.243120430000000e-01
            -3.805000780000000e-01 2.239123250000000e-01 4.607064700000000e-02 1.527350430000000e-01 9.363963829999999e-02 1.361308190000000e-02 8.486981300000000e-02 2.143677890000000e-02
            4.692323610000000e-02 1.518069530000000e-01 -3.797939780000000e-01 2.243210480000000e-01 8.487448559999999e-02 2.142581510000000e-02 9.250088670000001e-02 1.779675240000000e-02
497585488.0000000000 9.163369120000001e-02 2.224514350000000e-02 9.547373510000000e-02 2.062453810000000e-02 -3.174171570000000e-01 3.047656760000000e-01 8.200659260000000e-02 1.369105920000000e-01
            9.547197320000000e-02 2.062752100000000e-02 9.243083710000000e-02 1.932069390000000e-02 8.136702070000000e-02 1.380327290000000e-01 -3.166298770000000e-01 3.049689060000000e-01
            -3.174050040000000e-01 3.047559080000000e-01 8.137711640000000e-02 1.380250110000000e-01 1.029682420000000e-01 9.648465070000001e-03 9.419400650000000e-02 1.750422940000000e-02
            8.200791960000001e-02 1.369183090000000e-01 -3.166321180000000e-01 3.049660110000000e-01 9.419458080000000e-02 1.749781830000000e-02 1.018064460000000e-01 1.385177030000000e-02
498085071.0000000000 9.937411020000000e-02 1.504243870000000e-02 1.026833590000000e-01 1.269725460000000e-02 -2.380410630000000e-01 3.687564730000000e-01 1.122598640000000e-01 1.141768340000000e-01
            1.026818640000000e-01 1.269362780000000e-02 1.002090560000000e-01 1.208667130000000e-02 1.119183410000000e-01 1.154156020000000e-01 -2.372058070000000e-01 3.687854500000000e-01
            -2.380205580000000e-01 3.687487540000000e-01 1.119344870000000e-01 1.154039070000000e-01 1.095111610000000e-01 1.841450610000000e-03 1.007175540000000e-01 9.856594410000001e-03
            1.122516230000000e-01 1.141883430000000e-01 -2.372210500000000e-01 3.688047840000000e-01 1.007108160000000e-01 9.847783790000000e-03 1.083089440000000e-01 6.061700690000000e-03
498584654.0000000000 1.030560530000000e-01 5.205721620000000e-03 1.055343870000000e-01 2.444027440000000e-03 -1.464847780000000e-01 4.129889510000000e-01 1.361977800000000e-01 8.524272180000000e-02
            1.055279600000000e-01 2.436779990000000e-03 1.038653800000000e-01 2.235009870000000e-03 1.361352990000000e-01 8.651827140000000e-02 -1.456914440000000e-01 4.128464670000000e-01
            -1.465075430000000e-01 4.129920970000000e-01 1.361421310000000e-01 8.651986900000000e-02 1.118339970000000e-01 -8.117222300000001e-03 1.030761050000000e-01 1.096240340000000e-04
            1.362008040000000e-01 8.523369380000000e-02 -1.456787310000000e-01 4.128376730000000e-01 1.030747040000000e-01 8.822354110000000e-05 1.106135730000000e-01 -3.889223040000000e-03
499084237.0000000000 1.019073940000000e-01 -5.173533870000000e-03 1.034298240000000e-01 -7.914732040000001e-03 -4.731164430000000e-02 4.353487170000000e-01 1.528642660000000e-01 5.182155830000000e-02
            1.034217840000000e-01 -7.907849090000000e-03 1.027489250000000e-01 -8.142751980000000e-03 1.531123900000000e-01 5.309295570000000e-02 -4.656411570000000e-02 4.350099690000000e-01
            -4.730380070000000e-02 4.353411920000000e-01 1.530986610000000e-01 5.309557760000000e-02 1.094525750000000e-01 -1.815905750000000e-02 1.008251750000000e-01 -9.659288009999999e-03
            1.528661980000000e-01 5.182023860000000e-02 -4.656334720000000e-02 4.350109530000000e-01 1.008269030000000e-01 -9.654979310000001e-03 1.082385760000000e-01 -1.390259180000000e-02
499583820.0000000000 9.623765810000000e-02 -1.388493110000000e-02 9.686797870000000e-02 -1.621213910000000e-02 5.459939610000000e-02 4.344943830000000e-01 1.617586690000000e-01 1.557356810000000e-02
            9.686318839999999e-02 -1.620673490000000e-02 9.706691889999999e-02 -1.686895340000000e-02 1.622841250000000e-01 1.676868940000000e-02 5.526146180000000e-02 4.340056020000000e-01
            5.461198830000000e-02 4.344857080000000e-01 1.622887870000000e-01 1.676393200000000e-02 1.028238310000000e-01 -2.616652160000000e-02 9.439178750000000e-02 -1.736631410000000e-02
            1.617536460000000e-01 1.556243570000000e-02 5.525922030000000e-02 4.340048870000000e-01 9.439593060000000e-02 -1.736481370000000e-02 1.016367720000000e-01 -2.188778280000000e-02
500083403.0000000000 8.721650480000000e-02 -1.906510160000000e-02 8.720035170000000e-02 -2.060219690000000e-02 1.539931270000000e-01 4.101163540000000e-01 1.625327360000000e-01 -2.199386190000000e-02
            8.720311500000000e-02 -2.059708910000000e-02 8.803496500000001e-02 -2.205763190000000e-02 1.633432760000000e-01 -2.096806650000000e-02 1.545298350000000e-01 4.094692990000000e-01
            1.540027370000000e-01 4.101110150000000e-01 1.633400890000000e-01 -2.095900510000000e-02 9.327617730000000e-02 -3.041119120000000e-02 8.511405150000000e-02 -2.134971560000000e-02
            1.625407300000000e-01 -2.199946140000000e-02 1.545211490000000e-01 4.094545200000000e-01 8.513533040000000e-02 -2.134687080000000e-02 9.209553299999999e-02 -2.613005560000000e-02
500582986.0000000000 7.682141900000000e-02 -1.957514370000000e-02 7.650738260000001e-02 -2.008244120000000e-02 2.453789520000000e-01 3.630072920000000e-01 1.549542530000000e-01 -5.939836810000000e-02
            7.650704150000000e-02 -2.007898630000000e-02 7.761175480000000e-02 -2.255966500000000e-02 1.559995150000000e-01 -5.855627990000000e-02 2.457563300000000e-01 3.622742780000000e-01
            2.453802240000000e-01 3.630260060000000e-01 1.559897650000000e-01 -5.854906840000000e-02 8.279558410000000e-02 -2.994491930000000e-02 7.500165120000001e-02 -2.063545830000000e-02
            1.549568770000000e-01 -5.939329480000000e-02 2.457548720000000e-01 3.622705260000000e-01 7.500489900000000e-02 -2.064596620000000e-02 8.161475470000000e-02 -2.566672430000000e-02
501082569.0000000000 6.733405110000000e-02 -1.518633630000000e-02 6.715082429999999e-02 -1.466576890000000e-02 3.233691780000000e-01 2.954783410000000e-01 1.388368000000000e-01 -9.488974910000000e-02
            6.714426340000000e-02 -1.465806060000000e-02 6.811403960000000e-02 -1.818480890000000e-02 1.400621800000000e-01 -9.430832850000000e-02 3.235243220000000e-01 2.946712600000000e-01
            3.233649250000000e-01 2.954838840000000e-01 1.400473870000000e-01 -9.429170390000000e-02 7.367148410000000e-02 -2.479631470000000e-02 6.628020820000000e-02 -1.536157940000000e-02
            1.388392930000000e-01 -9.489205150000000e-02 3.235243480000000e-01 2.946639700000000e-01 6.626594550000001e-02 -1.536240500000000e-02 7.250850039999999e-02 -2.054310100000000e-02
501582152.0000000000 6.092684780000000e-02 -6.925261690000000e-03 6.127408340000000e-02 -5.453445280000000e-03 3.831246210000000e-01 2.112288730000000e-01 1.143619600000000e-01 -1.264575930000000e-01
            6.127520470000000e-02 -5.464146350000000e-03 6.172356500000000e-02 -9.894739090000000e-03 1.156979590000000e-01 -1.261446700000000e-01 3.831060830000000e-01 2.104038580000000e-01
            3.831156140000000e-01 2.112273360000000e-01 1.157168780000000e-01 -1.261534100000000e-01 6.793357880000001e-02 -1.611840970000000e-02 6.097048000000000e-02 -6.581237650000000e-03
            1.143540490000000e-01 -1.264465780000000e-01 3.830969800000000e-01 2.104109970000000e-01 6.096465780000000e-02 -6.584156070000000e-03 6.678221350000001e-02 -1.187421650000000e-02
502081735.0000000000 5.909111220000000e-02 3.359466020000000e-03 6.027278120000000e-02 5.481843870000000e-03 4.210004560000000e-01 1.153130580000000e-01 8.233029480000000e-02 -1.518488430000000e-01
            6.027541230000000e-02 5.496818700000000e-03 5.987671820000000e-02 4.028119940000000e-04 8.373038939999999e-02 -1.518726410000000e-01 4.208123690000000e-01 1.145229970000000e-01
            4.209965170000000e-01 1.153205190000000e-01 8.373742930000000e-02 -1.518702990000000e-01 6.687943840000000e-02 -5.903304150000000e-03 6.031608780000000e-02 3.661888760000000e-03
            8.234106319999999e-02 -1.518371440000000e-01 4.207917320000000e-01 1.145192680000000e-01 6.031533840000000e-02 3.675984770000000e-03 6.571245850000000e-02 -1.671588490000000e-03
502581318.0000000000 6.220058650000000e-02 1.325209660000000e-02 6.440095820000000e-02 1.570879070000000e-02 4.349326900000000e-01 1.360082410000000e-02 4.431691490000000e-02 -1.689612590000000e-01
            6.440240760000000e-02 1.570773990000000e-02 6.300106320000000e-02 1.031587310000000e-02 4.570225590000000e-02 -1.693268220000000e-01 4.345400570000000e-01 1.289102720000000e-02
            4.349228310000000e-01 1.361623310000000e-02 4.569869890000000e-02 -1.693240630000000e-01 7.066876400000000e-02 3.484886790000000e-03 6.451194780000000e-02 1.304018640000000e-02
            4.433844300000000e-02 -1.689740480000000e-01 4.345320710000000e-01 1.287603430000000e-02 6.451666880000000e-02 1.304369350000000e-02 6.950286220000000e-02 7.681795100000000e-03
503080901.0000000000 6.947450989999999e-02 2.052211090000000e-02 7.266803989999999e-02 2.290701850000000e-02 4.245176890000000e-01 -8.781988800000000e-02 2.737913150000000e-03 -1.761938890000000e-01
            7.267419460000001e-02 2.290771060000000e-02 7.027611330000000e-02 1.760892330000000e-02 3.985937270000000e-03 -1.768831450000000e-01 4.239745780000000e-01 -8.842174210000001e-02
            4.245308170000000e-01 -8.781078000000000e-02 4.009065690000000e-03 -1.768828010000000e-01 7.831228229999999e-02 9.888128190000000e-03 7.254003380000000e-02 1.934389650000000e-02
            2.746770080000000e-03 -1.761997630000000e-01 4.239901250000000e-01 -8.842834830000000e-02 7.252520079999999e-02 1.934306150000000e-02 7.711283770000001e-02 1.407638640000000e-02
503580484.0000000000 7.915073000000000e-02 2.359879630000000e-02 8.320875030000000e-02 2.558836140000000e-02 3.910249470000000e-01 -1.832385440000000e-01 -3.959200590000000e-02 -1.728713760000000e-01
            8.322475900000000e-02 2.557890760000000e-02 7.997809670000000e-02 2.067232600000000e-02 -3.853352290000000e-02 -1.738295820000000e-01 3.903598320000000e-01 -1.837148310000000e-01
            3.910223630000000e-01 -1.832519820000000e-01 -3.852385180000000e-02 -1.738316570000000e-01 8.790856649999999e-02 1.185879050000000e-02 8.249593430000000e-02 2.122375290000000e-02
            -3.957531290000000e-02 -1.728602950000000e-01 3.903600320000000e-01 -1.837092960000000e-01 8.250434249999999e-02 2.121693210000000e-02 8.669523079999999e-02 1.603168980000000e-02
504080067.0000000000 8.899934000000000e-02 2.193742860000000e-02 9.368469070000000e-02 2.328779610000000e-02 3.368475530000000e-01 -2.677480600000000e-01 -7.976115720000000e-02 -1.592411560000000e-01
            9.369806510000001e-02 2.329355890000000e-02 8.986258040000000e-02 1.899645960000000e-02 -7.896556520000000e-02 -1.604398030000000e-01 3.361007620000000e-01 -2.680336950000000e-01
            3.368494230000000e-01 -2.677358900000000e-01 -7.898304050000000e-02 -1.604496840000000e-01 9.721270999999999e-02 9.081595600000001e-03 9.214179440000000e-02 1.830933630000000e-02
            -7.977989110000000e-02 -1.592525740000000e-01 3.360987950000000e-01 -2.680422480000000e-01 9.215176130000000e-02 1.830812110000000e-02 9.595088210000000e-02 1.325719200000000e-02
504579650.0000000000 9.688627000000000e-02 1.601314450000000e-02 1.019101400000000e-01 1.666784590000000e-02 2.652827650000000e-01 -3.372694700000000e-01 -1.153109100000000e-01 -1.364828920000000e-01
            1.019052700000000e-01 1.668152350000000e-02 9.776801720000000e-02 1.308221740000000e-02 -1.148407570000000e-01 -1.378495380000000e-01 2.644704910000000e-01 -3.373789020000000e-01
            2.652764630000000e-01 -3.372441060000000e-01 -1.148263100000000e-01 -1.378492980000000e-01 1.040798340000000e-01 2.297684280000000e-03 9.935446390000000e-02 1.133551570000000e-02
            -1.153083100000000e-01 -1.364877870000000e-01 2.644719030000000e-01 -3.373620050000000e-01 9.937089659999999e-02 1.134222890000000e-02 1.027853480000000e-01 6.479548830000000e-03
505079233.0000000000 1.011402270000000e-01 7.277295510000000e-03 1.062083380000000e-01 7.268101830000000e-03 1.800887630000000e-01 -3.885598950000000e-01 -1.443732280000000e-01 -1.062301050000000e-01
            1.062080310000000e-01 7.278469820000000e-03 1.020315530000000e-01 4.333970230000000e-03 -1.442036000000000e-01 -1.076633740000000e-01 1.792891640000000e-01 -3.884796300000000e-01
            1.800971700000000e-01 -3.885579650000000e-01 -1.442005690000000e-01 -1.076653610000000e-01 1.069690390000000e-01 -6.970043840000000e-03 1.025971320000000e-01 1.848685580000000e-03
            -1.443642440000000e-01 -1.062161050000000e-01 1.792803780000000e-01 -3.884900440000000e-01 1.026154140000000e-01 1.852590330000000e-03 1.056814950000000e-01 -2.753059510000000e-03
505578816.0000000000 1.009314590000000e-01 -2.354366230000000e-03 1.058165030000000e-01 -2.875835710000000e-03 8.555867690000001e-02 -4.191903710000000e-01 -1.656436460000000e-01 -7.032886660000000e-02
            1.058273210000000e-01 -2.883771220000000e-03 1.018100000000000e-01 -5.305606430000000e-03 -1.658226550000000e-01 -7.178695890000000e-02 8.478667669999999e-02 -4.189254240000000e-01
            8.556940089999999e-02 -4.191964250000000e-01 -1.658052830000000e-01 -7.177456240000001e-02 1.052271840000000e-01 -1.662719370000000e-02 1.011642270000000e-01 -8.117734580000001e-03
            -1.656415620000000e-01 -7.033579780000000e-02 8.477934760000000e-02 -4.189204260000000e-01 1.011657450000000e-01 -8.116660130000000e-03 1.039206410000000e-01 -1.239348920000000e-02
506078399.0000000000 9.631798070000000e-02 -1.076100640000000e-02 1.009664160000000e-01 -1.159998400000000e-02 -1.366231860000000e-02 -4.274866290000000e-01 -1.783863290000000e-01 -3.064188040000000e-02
            1.009509820000000e-01 -1.159405840000000e-02 9.719988420000000e-02 -1.373686070000000e-02 -1.788907830000000e-01 -3.201396350000000e-02 -1.435441240000000e-02 -4.270458560000000e-01
            -1.366988610000000e-02 -4.274824030000000e-01 -1.788818000000000e-01 -3.200448470000000e-02 9.910837270000000e-02 -2.453694350000000e-02 9.532629410000000e-02 -1.640715750000000e-02
            -1.783802770000000e-01 -3.062158550000000e-02 -1.436668060000000e-02 -4.270647310000000e-01 9.532427700000000e-02 -1.639775680000000e-02 9.782521260000000e-02 -2.029165890000000e-02
506577982.0000000000 8.832070860000001e-02 -1.607463330000000e-02 9.273044880000000e-02 -1.700806200000000e-02 -1.125110190000000e-01 -4.126663890000000e-01 -1.820991410000000e-01 1.113031710000000e-02
            9.274844650000000e-02 -1.701466080000000e-02 8.920994230000000e-02 -1.905613620000000e-02 -1.829035770000000e-01 9.878047640000000e-03 -1.130848880000000e-01 -4.120941550000000e-01
            -1.125273100000000e-01 -4.126679140000000e-01 -1.829141320000000e-01 9.891645790000000e-03 8.984952540000000e-02 -2.886867770000000e-02 8.626313419999999e-02 -2.119373480000000e-02
            -1.820961270000000e-01 1.112871210000000e-02 -1.130792690000000e-01 -4.121044180000000e-01 8.624915180000001e-02 -2.119779100000000e-02 8.858950200000000e-02 -2.461999370000000e-02
507077565.0000000000 7.872401010000001e-02 -1.705559520000000e-02 8.302937560000000e-02 -1.794518930000000e-02 -2.055532710000000e-01 -3.750727550000000e-01 -1.764368900000000e-01 5.319560900000000e-02
            8.303343110000000e-02 -1.793283980000000e-02 7.959708120000000e-02 -2.003416510000000e-02 -1.775171230000000e-01 5.215787210000000e-02 -2.059790310000000e-01 -3.743958290000000e-01
            -2.055664240000000e-01 -3.750871000000000e-01 -1.775235580000000e-01 5.217126690000000e-02 7.938396250000000e-02 -2.851934070000000e-02 7.583664570000000e-02 -2.135031920000000e-02
            -1.764344010000000e-01 5.319763990000000e-02 -2.059833260000000e-01 -3.743898840000000e-01 7.583580120000000e-02 -2.133691670000000e-02 7.813254240000000e-02 -2.426946310000000e-02
507577148.0000000000 6.970655720000000e-02 -1.336570160000000e-02 7.408315200000000e-02 -1.412343360000000e-02 -2.873924530000000e-01 -3.164514990000000e-01 -1.611856160000000e-01 9.364773740000000e-02
            7.407612360000000e-02 -1.413637330000000e-02 7.056447450000000e-02 -1.633669570000000e-02 -1.625054000000000e-01 9.288717800000000e-02 -2.876570550000000e-01 -3.156637420000000e-01
            -2.873994400000000e-01 -3.164436630000000e-01 -1.625097190000000e-01 9.288445610000000e-02 6.999734339999999e-02 -2.331654720000000e-02 6.636636100000000e-02 -1.668538880000000e-02
            -1.611975270000000e-01 9.362796890000000e-02 -2.876483710000000e-01 -3.156701670000000e-01 6.637103020000000e-02 -1.667927560000000e-02 6.877555250000000e-02 -1.908854410000000e-02
508076731.0000000000 6.340626910000000e-02 -5.783742680000000e-03 6.804236100000000e-02 -6.492727340000000e-03 -3.530345200000000e-01 -2.399431380000000e-01 -1.365182440000000e-01 1.302523030000000e-01
            6.805410440000000e-02 -6.471818820000000e-03 6.425115080000000e-02 -8.738124099999999e-03 -1.379744730000000e-01 1.298035950000000e-01 -3.530968670000000e-01 -2.391249460000000e-01
            -3.530407080000000e-01 -2.399501430000000e-01 -1.379816420000000e-01 1.298094810000000e-01 6.391136640000000e-02 -1.426350450000000e-02 6.001445520000000e-02 -8.125624999999999e-03
            -1.365022420000000e-01 1.302458110000000e-01 -3.530968240000000e-01 -2.391274130000000e-01 6.000083610000000e-02 -8.110007830000000e-03 6.268556779999999e-02 -1.005569950000000e-02
508576314.0000000000 6.139024080000000e-02 3.967637470000000e-03 6.644428950000000e-02 3.191708850000000e-03 -3.984346440000000e-01 -1.501465880000000e-01 -1.031566430000000e-01 1.605676500000000e-01
            6.644493880000001e-02 3.201362470000000e-03 6.226150880000000e-02 1.029644630000000e-03 -1.047067920000000e-01 1.604939480000000e-01 -3.982914710000000e-01 -1.493504250000000e-01
            -3.984238070000000e-01 -1.501648980000000e-01 -1.047133140000000e-01 1.604991020000000e-01 6.255432840000000e-02 -3.279052900000000e-03 5.824443720000000e-02 2.483965790000000e-03
            -1.031565110000000e-01 1.605861810000000e-01 -3.982982450000000e-01 -1.493474480000000e-01 5.823288080000000e-02 2.467891310000000e-03 6.133588510000000e-02 9.180842590000001e-04
509075897.0000000000 6.419489700000000e-02 1.361878380000000e-02 6.971753590000000e-02 1.253194560000000e-02 -4.210475980000000e-01 -5.260850090000000e-02 -6.272826180000000e-02 1.822686570000000e-01
            6.972246930000001e-02 1.252197230000000e-02 6.505457839999999e-02 1.070640270000000e-02 -6.427859010000000e-02 1.825539690000000e-01 -4.207394590000000e-01 -5.185801950000000e-02
            -4.210367010000000e-01 -5.260163110000000e-02 -6.427627280000001e-02 1.825640230000000e-01 6.636000060000000e-02 7.213644230000000e-03 6.149618900000000e-02 1.273945680000000e-02
            -6.272146800000000e-02 1.822691370000000e-01 -4.207342670000000e-01 -5.185715040000000e-02 6.148681990000000e-02 1.272192710000000e-02 6.510731680000000e-02 1.137389610000000e-02
509575480.0000000000 7.119919710000000e-02 2.091678680000000e-02 7.714452140000000e-02 1.927192860000000e-02 -4.199906480000000e-01 4.678817830000000e-02 -1.766395610000000e-02 1.934597350000000e-01
            7.714515230000001e-02 1.927580910000000e-02 7.206750800000000e-02 1.800677470000000e-02 -1.912168900000000e-02 1.941043160000000e-01 -4.195306240000000e-01 4.745793010000000e-02
            -4.199959850000000e-01 4.679352020000000e-02 -1.910958320000000e-02 1.941272080000000e-01 7.451769880000000e-02 1.485250960000000e-02 6.901088530000000e-02 2.031812040000000e-02
            -1.766584510000000e-02 1.934424810000000e-01 -4.195205910000000e-01 4.745767190000000e-02 6.902011620000000e-02 2.033116630000000e-02 7.324153390000000e-02 1.900671100000000e-02
510075063.0000000000 8.078928539999999e-02 2.421417090000000e-02 8.697355640000000e-02 2.178135580000000e-02 -3.959898710000000e-01 1.423801910000000e-01 2.899088800000000e-02 1.931504600000000e-01
            8.697202079999999e-02 2.178656470000000e-02 8.169150930000001e-02 2.129189780000000e-02 2.774270510000000e-02 1.941413440000000e-01 -3.953656580000000e-01 1.429102330000000e-01
            -3.959894030000000e-01 1.423736400000000e-01 2.773683830000000e-02 1.941380930000000e-01 8.519894550000000e-02 1.800709390000000e-02 7.906930390000000e-02 2.365901070000000e-02
            2.899923330000000e-02 1.931447790000000e-01 -3.953651310000000e-01 1.429056540000000e-01 7.906880110000000e-02 2.366691400000000e-02 8.388813230000000e-02 2.214744440000000e-02
510574646.0000000000 9.080558029999999e-02 2.281418820000000e-02 9.698268870000000e-02 1.950006790000000e-02 -3.509810800000000e-01 2.291565090000000e-01 7.415471150000000e-02 1.814323190000000e-01
            9.697284620000000e-02 1.948358790000000e-02 9.173479940000000e-02 1.989159190000000e-02 7.315759580000000e-02 1.827114850000000e-01 -3.502639160000000e-01 2.295182820000000e-01
            -3.509931660000000e-01 2.291595790000000e-01 7.315643860000000e-02 1.827086290000000e-01 9.608064280000000e-02 1.606672640000000e-02 8.940272190000000e-02 2.211534390000000e-02
            7.415057930000001e-02 1.814299350000000e-01 -3.502743160000000e-01 2.295234170000000e-01 8.939027080000000e-02 2.213548090000000e-02 9.475672940000000e-02 2.021190910000000e-02
511074229.0000000000 9.913128260000000e-02 1.706567360000000e-02 1.049802230000000e-01 1.286137820000000e-02 -2.878173880000000e-01 3.029149920000000e-01 1.149471840000000e-01 1.593219120000000e-01
            1.049791680000000e-01 1.285845380000000e-02 1.000770820000000e-01 1.413106630000000e-02 1.142877510000000e-01 1.607961250000000e-01 -2.870201810000000e-01 3.030885490000000e-01
            -2.877987540000000e-01 3.029054600000000e-01 1.142831650000000e-01 1.607988360000000e-01 1.048993230000000e-01 9.541353700000000e-03 9.783515210000000e-02 1.618495200000000e-02
            1.149470140000000e-01 1.593274770000000e-01 -2.870250250000000e-01 3.031010690000000e-01 9.782408330000000e-02 1.619066010000000e-02 1.035357830000000e-01 1.369291230000000e-02
511573812.0000000000 1.040104870000000e-01 8.245583750000000e-03 1.092347760000000e-01 3.267921160000000e-03 -2.099015890000000e-01 3.602107560000000e-01 1.492051150000000e-01 1.284817070000000e-01
            1.092419200000000e-01 3.255526730000000e-03 1.049725260000000e-01 5.311796680000000e-03 1.488857100000000e-01 1.300680370000000e-01 -2.091062200000000e-01 3.602142380000000e-01
            -2.098983980000000e-01 3.602129410000000e-01 1.488735200000000e-01 1.300866210000000e-01 1.098807480000000e-01 -1.712687180000000e-04 1.026129670000000e-01 7.211523130000000e-03
            1.491854750000000e-01 1.284845860000000e-01 -2.091058030000000e-01 3.602197950000000e-01 1.025988110000000e-01 7.216141700000000e-03 1.084741600000000e-01 4.013075800000000e-03
512073394.0000000000 1.044900210000000e-01 -1.803812110000000e-03 1.088530430000000e-01 -7.324520050000000e-03 -1.211539980000000e-01 3.983862750000000e-01 1.753149710000000e-01 9.085332550000000e-02
            1.088651690000000e-01 -7.317365720000000e-03 1.054447790000000e-01 -4.727543330000000e-03 1.753803350000000e-01 9.248227870000000e-02 -1.203623110000000e-01 3.982132370000000e-01
            -1.211599370000000e-01 3.983841400000000e-01 1.753636000000000e-01 9.248079340000000e-02 1.100390270000000e-01 -1.100036650000000e-02 1.028267640000000e-01 -2.876168210000000e-03
            1.752959530000000e-01 9.085673420000000e-02 -1.203625730000000e-01 3.982044230000000e-01 1.028192700000000e-01 -2.856112940000000e-03 1.086361730000000e-01 -6.807212830000000e-03
512572977.0000000000 1.004336120000000e-01 -1.097715750000000e-02 1.038508180000000e-01 -1.672678200000000e-02 -2.589919020000000e-02 4.154234840000000e-01 1.923101530000000e-01 4.844686750000000e-02
            1.038395350000000e-01 -1.672111960000000e-02 1.013871200000000e-01 -1.392241360000000e-02 1.927519070000000e-01 5.001698250000000e-02 -2.516851020000000e-02 4.150753170000000e-01
            -2.588408100000000e-02 4.154291440000000e-01 1.927514180000000e-01 5.003780940000000e-02 1.054008310000000e-01 -2.074197770000000e-02 9.848187090000000e-02 -1.192929990000000e-02
            1.923244340000000e-01 4.845363240000000e-02 -2.518012940000000e-02 4.150942470000000e-01 9.849278450000000e-02 -1.193265690000000e-02 1.039946750000000e-01 -1.651889870000000e-02
513072560.0000000000 9.272691760000000e-02 -1.735985730000000e-02 9.517338790000000e-02 -2.299393870000000e-02 7.109053479999999e-02 4.101551190000000e-01 1.995809530000000e-01 3.206737320000000e-03
            9.517490889999999e-02 -2.297535330000000e-02 9.367626840000000e-02 -2.031722980000000e-02 2.003806770000000e-01 4.640339570000000e-03 7.171916840000001e-02 4.096517200000000e-01
            7.110399300000000e-02 4.101550670000000e-01 2.003652680000000e-01 4.638898480000000e-03 9.689382530000000e-02 -2.738108850000000e-02 9.050714220000000e-02 -1.801365060000000e-02
            1.995737290000000e-01 3.188106910000000e-03 7.170455370000001e-02 4.096444540000000e-01 9.050041380000000e-02 -1.800822940000000e-02 9.552006389999999e-02 -2.315128810000000e-02
513572143.0000000000 8.298131609999999e-02 -1.955483590000000e-02 8.461821400000000e-02 -2.477376500000000e-02 1.646385160000000e-01 3.823588980000000e-01 1.966567600000000e-01 -4.297338180000000e-02
            8.463215880000000e-02 -2.476599420000000e-02 8.391928660000000e-02 -2.252853080000000e-02 1.977825970000000e-01 -4.174354590000000e-02 1.651232400000000e-01 3.817217440000000e-01
            1.646499910000000e-01 3.823590040000000e-01 1.977774070000000e-01 -4.174265300000000e-02 8.632297090000000e-02 -2.949014260000000e-02 8.058558840000001e-02 -1.977028660000000e-02
            1.966721050000000e-01 -4.299077090000000e-02 1.651412550000000e-01 3.817081560000000e-01 8.057762470000000e-02 -1.976357950000000e-02 8.497569330000000e-02 -2.526922410000000e-02
514071726.0000000000 7.330976960000000e-02 -1.706187870000000e-02 7.440731880000000e-02 -2.162469720000000e-02 2.493368290000000e-01 3.331628840000000e-01 1.832981460000000e-01 -8.803402360000000e-02
            7.442051470000000e-02 -2.163022470000000e-02 7.424196299999999e-02 -2.002825570000000e-02 1.846685650000000e-01 -8.707472920000001e-02 2.496643650000000e-01 3.324386940000000e-01
            2.493412190000000e-01 3.331523530000000e-01 1.846792080000000e-01 -8.709337910000001e-02 7.595852280000000e-02 -2.660136710000000e-02 7.087098999999999e-02 -1.674518260000000e-02
            1.833143180000000e-01 -8.802564540000000e-02 2.496600940000000e-01 3.324295200000000e-01 7.087492080000000e-02 -1.672969020000000e-02 7.462502600000000e-02 -2.238116790000000e-02
514571309.0000000000 6.589149660000000e-02 -1.039409800000000e-02 6.678170460000001e-02 -1.421814720000000e-02 3.200562740000000e-01 2.651228050000000e-01 1.595526410000000e-01 -1.296187190000000e-01
            6.678808790000000e-02 -1.423233250000000e-02 6.681776050000000e-02 -1.334964570000000e-02 1.611421680000000e-01 -1.290130760000000e-01 3.202084630000000e-01 2.643541320000000e-01
            3.200729380000000e-01 2.651502460000000e-01 1.611310100000000e-01 -1.290232140000000e-01 6.807157370000000e-02 -1.929548490000000e-02 6.362801050000000e-02 -9.516933030000001e-03
            1.595522340000000e-01 -1.296130090000000e-01 3.202035770000000e-01 2.643451010000000e-01 6.358716720000000e-02 -9.508725460000001e-03 6.676386110000000e-02 -1.509585260000000e-02
515070892.0000000000 6.245481450000000e-02 -1.090670560000000e-03 6.346932120000000e-02 -4.203813140000000e-03 3.724669160000000e-01 1.822751530000000e-01 1.260554810000000e-01 -1.651663090000000e-01
            6.346643759999999e-02 -4.183192260000000e-03 6.336954520000000e-02 -4.026393990000000e-03 1.277724880000000e-01 -1.649406330000000e-01 3.724034210000000e-01 1.814648270000000e-01
            3.724617550000000e-01 1.822790300000000e-01 1.277594080000000e-01 -1.649436900000000e-01 6.446598050000001e-02 -9.223697760000000e-03 6.048632130000000e-02 3.038297260000000e-04
            1.260604720000000e-01 -1.651528750000000e-01 3.724045430000000e-01 1.814768990000000e-01 6.048231650000000e-02 3.083111540000000e-04 6.314424100000000e-02 -5.056639510000000e-03
515570475.0000000000 6.376829900000000e-02 8.688516270000000e-03 6.519393920000000e-02 6.100330940000000e-03 4.034564190000000e-01 8.968809910000000e-02 8.429928420000000e-02 -1.920764810000000e-01
            6.520411430000000e-02 6.108827870000000e-03 6.468638120000000e-02 5.790474450000000e-03 8.601002939999999e-02 -1.922430570000000e-01 4.032229250000000e-01 8.892498640000000e-02
            4.034498000000000e-01 8.969014290000001e-02 8.601803540000000e-02 -1.922512810000000e-01 6.593407720000000e-02 1.273460950000000e-03 6.224573710000000e-02 1.049352660000000e-02
            8.428970680000000e-02 -1.920641780000000e-01 4.031945380000000e-01 8.893691140000000e-02 6.223408940000000e-02 1.048636340000000e-02 6.461864650000000e-02 5.423541910000000e-03
516070058.0000000000 6.946523990000000e-02 1.665242720000000e-02 7.150086550000000e-02 1.432151150000000e-02 4.115713670000000e-01 -6.935111290000000e-03 3.662582350000000e-02 -2.081632440000000e-01
            7.150421580000001e-02 1.431818840000000e-02 7.041443280000000e-02 1.374674970000000e-02 3.828219810000000e-02 -2.087594960000000e-01 4.111691140000000e-01 -7.617010010000000e-03
            4.115665710000000e-01 -6.934121680000000e-03 3.827972500000000e-02 -2.087740610000000e-01 7.204761050000000e-02 9.812344280000000e-03 6.844462900000001e-02 1.873287850000000e-02
            3.662117850000000e-02 -2.081511730000000e-01 4.111493740000000e-01 -7.608953650000000e-03 6.846658080000000e-02 1.871767700000000e-02 7.069963640000000e-02 1.394910440000000e-02
516569641.0000000000 7.814603040000000e-02 2.098845670000000e-02 8.083283110000000e-02 1.856453380000000e-02 3.969494660000000e-01 -1.019549440000000e-01 -1.386095570000000e-02 -2.120869000000000e-01
            8.084450629999999e-02 1.856330280000000e-02 7.909858190000001e-02 1.810805440000000e-02 -1.239399670000000e-02 -2.130744970000000e-01 3.963825400000000e-01 -1.025352770000000e-01
            3.969473330000000e-01 -1.019683480000000e-01 -1.238548190000000e-02 -2.130564940000000e-01 8.133104680000000e-02 1.449119970000000e-02 7.766104370000000e-02 2.318732090000000e-02
            -1.385981770000000e-02 -2.121031180000000e-01 3.963918630000000e-01 -1.025359250000000e-01 7.766783400000001e-02 2.318813340000000e-02 7.993854740000000e-02 1.861303040000000e-02
517069224.0000000000 8.773998340000000e-02 2.076345240000000e-02 9.102933830000000e-02 1.795959400000000e-02 3.610716210000000e-01 -1.902841080000000e-01 -6.383364270000000e-02 -2.035615260000000e-01
            9.104293910000000e-02 1.797912660000000e-02 8.871681670000001e-02 1.787901830000000e-02 -6.263782969999999e-02 -2.048510560000000e-01 3.604017880000000e-01 -1.907060510000000e-01
            3.610710290000000e-01 -1.902971270000000e-01 -6.261358280000000e-02 -2.048578160000000e-01 9.158908759999999e-02 1.435495240000000e-02 8.776169840000000e-02 2.301741660000000e-02
            -6.383136820000000e-02 -2.035656980000000e-01 3.603999650000000e-01 -1.907052890000000e-01 8.779096480000000e-02 2.302125780000000e-02 9.017731530000000e-02 1.846708830000000e-02
517568807.0000000000 9.607408480000000e-02 1.616850940000000e-02 9.979031360000000e-02 1.271771980000000e-02 3.063271850000000e-01 -2.675100450000000e-01 -1.101283390000000e-01 -1.833370260000000e-01
            9.980403850000000e-02 1.273151560000000e-02 9.707382360000000e-02 1.327527170000000e-02 -1.092506610000000e-01 -1.848913190000000e-01 3.056033290000000e-01 -2.677560830000000e-01
            3.063402330000000e-01 -2.675087600000000e-01 -1.092579250000000e-01 -1.848916610000000e-01 1.005739680000000e-01 9.554123330000001e-03 9.660947170000000e-02 1.837520380000000e-02
            -1.101212550000000e-01 -1.833449980000000e-01 3.056023200000000e-01 -2.677799030000000e-01 9.659505270000000e-02 1.838787070000000e-02 9.913685000000000e-02 1.366876910000000e-02
518068390.0000000000 1.013359260000000e-01 8.291605450000000e-03 1.052177470000000e-01 4.023338720000000e-03 2.358887930000000e-01 -3.300211670000000e-01 -1.501315690000000e-01 -1.529614450000000e-01
            1.052019590000000e-01 4.015144550000000e-03 1.023572530000000e-01 5.399035220000000e-03 -1.496387610000000e-01 -1.546782850000000e-01 2.351050270000000e-01 -3.301053900000000e-01
            2.358670140000000e-01 -3.300311890000000e-01 -1.496450070000000e-01 -1.546634810000000e-01 1.063183410000000e-01 1.223326390000000e-03 1.023244140000000e-01 1.040711050000000e-02
            -1.501252010000000e-01 -1.529501890000000e-01 2.350895160000000e-01 -3.300981390000000e-01 1.023165210000000e-01 1.041149990000000e-02 1.048648890000000e-01 5.360580670000000e-03
518567973.0000000000 1.023901620000000e-01 -1.104029730000000e-03 1.061226090000000e-01 -6.281672390000000e-03 1.532438410000000e-01 -3.748828150000000e-01 -1.818785350000000e-01 -1.143778710000000e-01
            1.061065480000000e-01 -6.273876460000000e-03 1.033959660000000e-01 -4.020714460000000e-03 -1.818183820000000e-01 -1.161650210000000e-01 1.524692560000000e-01 -3.747853670000000e-01
            1.532349460000000e-01 -3.748694640000000e-01 -1.818224670000000e-01 -1.161691730000000e-01 1.076628730000000e-01 -8.793068209999999e-03 1.038236700000000e-01 8.896170800000000e-04
            -1.818802960000000e-01 -1.143854190000000e-01 1.524620080000000e-01 -3.747809940000000e-01 1.038020530000000e-01 8.903314020000000e-04 1.061803480000000e-01 -4.640193900000000e-03
519067556.0000000000 9.899488480000000e-02 -9.965748999999999e-03 1.022579850000000e-01 -1.598197080000000e-02 6.248380440000000e-02 -3.998224480000000e-01 -2.040763530000000e-01 -6.977396940000000e-02
            1.022650250000000e-01 -1.598867570000000e-02 1.000017270000000e-01 -1.291642730000000e-02 -2.044289740000000e-01 -7.154209100000000e-02 6.175992880000000e-02 -3.995554180000000e-01
            6.249212110000000e-02 -3.998250740000000e-01 -2.044234700000000e-01 -7.153670710000000e-02 1.043241910000000e-01 -1.837172630000000e-02 1.008747960000000e-01 -8.147083340000000e-03
            -2.040869700000000e-01 -6.977708100000000e-02 6.175781420000000e-02 -3.995468760000000e-01 1.008642430000000e-01 -8.147070700000000e-03 1.028349730000000e-01 -1.417674570000000e-02
519567139.0000000000 9.184826259999999e-02 -1.633798670000000e-02 9.440574790000000e-02 -2.305536270000000e-02 -3.185073790000000e-02 -4.033106230000000e-01 -2.158248180000000e-01 -2.125143870000000e-02
            9.440052610000001e-02 -2.303489770000000e-02 9.284767720000001e-02 -1.928365550000000e-02 -2.165879150000000e-01 -2.288814390000000e-02 -3.252341680000000e-02 -4.028704460000000e-01
            -3.185497180000000e-02 -4.033189820000000e-01 -2.165892250000000e-01 -2.289906980000000e-02 9.694483690000000e-02 -2.541273020000000e-02 9.421476640000000e-02 -1.474942340000000e-02
            -2.158368990000000e-01 -2.124776160000000e-02 -3.252400410000000e-02 -4.028609610000000e-01 9.420796640000000e-02 -1.476576150000000e-02 9.548403390000000e-02 -2.122449910000000e-02
520066722.0000000000 8.243074400000000e-02 -1.872891890000000e-02 8.412248050000000e-02 -2.591341670000000e-02 -1.248332870000000e-01 -3.847587610000000e-01 -2.165370910000000e-01 2.906433800000000e-02
            8.412075810000000e-02 -2.590960220000000e-02 8.343005470000001e-02 -2.167811580000000e-02 -2.176452800000000e-01 2.763633270000000e-02 -1.253431480000000e-01 -3.841627180000000e-01
            -1.248164960000000e-01 -3.847495650000000e-01 -2.176433710000000e-01 2.762130390000000e-02 8.710516660000001e-02 -2.839604750000000e-02 8.529982220000000e-02 -1.748786230000000e-02
            -2.165379360000000e-01 2.906777370000000e-02 -1.253597800000000e-01 -3.841608460000000e-01 8.531781460000000e-02 -1.747783320000000e-02 8.566517799999999e-02 -2.418027330000000e-02
520566305.0000000000 7.280353150000000e-02 -1.646673700000000e-02 7.356816090000000e-02 -2.388091350000000e-02 -2.111234290000000e-01 -3.447221070000000e-01 -2.058088760000000e-01 7.889509080000000e-02
            7.354878120000000e-02 -2.387353650000000e-02 7.379507380000000e-02 -1.942315620000000e-02 -2.072424270000000e-01 7.772133720000000e-02 -2.115099320000000e-01 -3.440226630000000e-01
            -2.111275580000000e-01 -3.447166410000000e-01 -2.072362890000000e-01 7.772569360000001e-02 7.691901370000000e-02 -2.655700730000000e-02 7.621009690000000e-02 -1.571537140000000e-02
            -2.058166520000000e-01 7.890298770000000e-02 -2.115104260000000e-01 -3.440269600000000e-01 7.620758399999999e-02 -1.571960080000000e-02 7.548592849999999e-02 -2.236253530000000e-02
521065888.0000000000 6.521173040000000e-02 -9.898791060000000e-03 6.500182090000001e-02 -1.728520900000000e-02 -2.856141190000000e-01 -2.852556740000000e-01 -1.836368590000000e-01 1.257356760000000e-01
            6.499720530000000e-02 -1.729894290000000e-02 6.618062470000000e-02 -1.282660850000000e-02 -1.852927600000000e-01 1.249175160000000e-01 -2.858147160000000e-01 -2.845038310000000e-01
            -2.856028890000000e-01 -2.852570170000000e-01 -1.852972740000000e-01 1.249110190000000e-01 6.864304420000000e-02 -2.026177900000000e-02 6.905893410000000e-02 -9.821177800000001e-03
            -1.836329360000000e-01 1.257375220000000e-01 -2.858197600000000e-01 -2.844915900000000e-01 6.905137470000000e-02 -9.830687380000000e-03 6.722802949999999e-02 -1.606981120000000e-02
521565471.0000000000 6.144153960000000e-02 -3.859909620000000e-04 6.035981680000000e-02 -7.590268820000000e-03 -3.436891830000000e-01 -2.098228380000000e-01 -1.505456630000000e-01 1.667841040000000e-01
            6.036237270000000e-02 -7.602239260000000e-03 6.242056380000000e-02 -3.307833830000000e-03 -1.523988090000000e-01 1.663896250000000e-01 -3.437155820000000e-01 -2.090367360000000e-01
            -3.436903550000000e-01 -2.098337230000000e-01 -1.523807290000000e-01 1.663827070000000e-01 6.415384730000000e-02 -1.083028970000000e-02 6.559101570000000e-02 -1.204543660000000e-03
            -1.505564730000000e-01 1.667872230000000e-01 -3.437107430000000e-01 -2.090302900000000e-01 6.559510840000000e-02 -1.208399020000000e-03 6.273531920000000e-02 -6.675864910000000e-03
522065054.0000000000 6.247832650000000e-02 9.933171130000000e-03 6.062665180000000e-02 3.045948650000000e-03 -3.819334890000000e-01 -1.230625090000000e-01 -1.079460490000000e-01 1.992655990000000e-01
            6.063071190000000e-02 3.050564830000000e-03 6.347366670000000e-02 7.041275420000000e-03 -1.098445440000000e-01 1.992990700000000e-01 -3.817806200000000e-01 -1.222836300000000e-01
            -3.819426500000000e-01 -1.230575870000000e-01 -1.098376150000000e-01 1.993056710000000e-01 6.448865560000000e-02 -4.324345990000000e-04 6.671423680000001e-02 8.083449840000000e-03
            -1.079512330000000e-01 1.992537330000000e-01 -3.817723380000000e-01 -1.222974470000000e-01 6.672618660000000e-02 8.083869140000000e-03 6.308173100000000e-02 3.708662910000000e-03
522564637.0000000000 6.819499310000000e-02 1.870940200000000e-02 6.567577890000000e-02 1.223731170000000e-02 -3.984112600000000e-01 -3.032802610000000e-02 -5.815175610000000e-02 2.206690860000000e-01
            6.566507670000001e-02 1.224549830000000e-02 6.918213360000000e-02 1.584053300000000e-02 -6.000844960000000e-02 2.211797490000000e-01 -3.980642350000000e-01 -2.963124150000000e-02
            -3.984158550000000e-01 -3.034164780000000e-02 -5.999233190000000e-02 2.211590940000000e-01 6.954509759999999e-02 8.581862399999999e-03 7.218688480000000e-02 1.574235820000000e-02
            -5.814835160000000e-02 2.206666640000000e-01 -3.980754010000000e-01 -2.963509750000000e-02 7.219464310000000e-02 1.576137220000000e-02 6.810853259999999e-02 1.269569260000000e-02
523064220.0000000000 7.729313770000000e-02 2.398101310000000e-02 7.419288459999999e-02 1.797200030000000e-02 -3.927227230000000e-01 6.284509889999999e-02 -4.280755640000000e-03 2.293397330000000e-01
            7.419922029999999e-02 1.796932860000000e-02 7.830661190000000e-02 2.110310090000000e-02 -5.966869130000000e-03 2.302616080000000e-01 -3.922381730000000e-01 6.345888399999999e-02
            -3.927289050000000e-01 6.284841070000000e-02 -5.969996620000000e-03 2.302567920000000e-01 7.806421819999999e-02 1.420966010000000e-02 8.072721900000000e-02 1.995947170000000e-02
            -4.282684640000000e-03 2.293366030000000e-01 -3.922340880000000e-01 6.346479939999999e-02 8.072420710000000e-02 1.995224310000000e-02 7.660711090000000e-02 1.830798660000000e-02
523563803.0000000000 8.777942060000000e-02 2.462281670000000e-02 8.420168540000000e-02 1.909585090000000e-02 -3.658660930000000e-01 1.513998940000000e-01 5.014449700000000e-02 2.246351720000000e-01
            8.420689710000000e-02 1.908446630000000e-02 8.881800490000000e-02 2.175310650000000e-02 4.870550580000000e-02 2.259416120000000e-01 -3.652611800000000e-01 1.518682610000000e-01
            -3.658705450000000e-01 1.514013140000000e-01 4.871904860000000e-02 2.259425770000000e-01 8.810183200000000e-02 1.529928970000000e-02 9.031686379999999e-02 1.966480300000000e-02
            5.015216570000000e-02 2.246444870000000e-01 -3.652684320000000e-01 1.518713140000000e-01 9.032022500000000e-02 1.966899030000000e-02 8.661436070000000e-02 1.939497140000000e-02
524063386.0000000000 9.743777090000000e-02 2.056736250000000e-02 9.341996960000000e-02 1.553914720000000e-02 -3.198300470000000e-01 2.308387290000000e-01 1.016999560000000e-01 2.070303950000000e-01
            9.341086670000000e-02 1.555102540000000e-02 9.850533470000000e-02 1.770236990000000e-02 1.006022680000000e-01 2.086469560000000e-01 -3.191196090000000e-01 2.311564260000000e-01
            -3.198376460000000e-01 2.308476040000000e-01 1.006115980000000e-01 2.086569780000000e-01 9.739420810000000e-02 1.172633550000000e-02 9.880477080000000e-02 1.495432470000000e-02
            1.016934370000000e-01 2.070461360000000e-01 -3.191308510000000e-01 2.311551760000000e-01 9.879554920000000e-02 1.495610100000000e-02 9.586403500000000e-02 1.582780920000000e-02
524562969.0000000000 1.042637430000000e-01 1.274005820000000e-02 9.983205560000000e-02 8.249817580000001e-03 -2.573257880000000e-01 2.974133260000000e-01 1.473942550000000e-01 1.779427920000000e-01
            9.982224450000000e-02 8.248970490000000e-03 1.053505580000000e-01 9.854085060000000e-03 1.467097080000000e-01 1.797508320000000e-01 -2.565618200000000e-01 2.975628440000000e-01
            -2.573219670000000e-01 2.974126750000000e-01 1.467086820000000e-01 1.797516320000000e-01 1.039614750000000e-01 4.416730360000000e-03 1.042759650000000e-01 6.813870280000000e-03
            1.474064760000000e-01 1.779396690000000e-01 -2.565689410000000e-01 2.975743170000000e-01 1.042651320000000e-01 6.810026930000000e-03 1.024296520000000e-01 8.517857480000000e-03
525062552.0000000000 1.069603590000000e-01 2.794760740000000e-03 1.021373330000000e-01 -1.100922210000000e-03 -1.815709270000000e-01 3.480231260000000e-01 1.849523340000000e-01 1.392778200000000e-01
            1.021351850000000e-01 -1.110254150000000e-03 1.080551720000000e-01 -9.628503109999999e-05 1.847138900000000e-01 1.412068910000000e-01 -1.807836950000000e-01 3.479973130000000e-01
            -1.815670940000000e-01 3.480099640000000e-01 1.847080850000000e-01 1.412216000000000e-01 1.064754150000000e-01 -5.036659000000000e-03 1.055325370000000e-01 -3.036790150000000e-03
            1.849468600000000e-01 1.392837160000000e-01 -1.807848090000000e-01 3.479812700000000e-01 1.055405580000000e-01 -3.034574420000000e-03 1.049131470000000e-01 -8.937622420000000e-04
525562135.0000000000 1.050257510000000e-01 -7.193039540000000e-03 9.986396840000000e-02 -1.045664360000000e-02 -9.624809430000000e-02 3.801240860000000e-01 2.126956440000000e-01 9.327017949999999e-02
            9.986937960000000e-02 -1.044542030000000e-02 1.061237430000000e-01 -1.011801230000000e-02 2.128953570000000e-01 9.520941640000000e-02 -9.551317560000000e-02 3.799251130000000e-01
            -9.624157970000000e-02 3.801260720000000e-01 2.128950320000000e-01 9.519917570000000e-02 1.044335990000000e-01 -1.456049190000000e-02 1.022247000000000e-01 -1.254327250000000e-02
            2.126983520000000e-01 9.326522530000000e-02 -9.550118780000000e-02 3.799191310000000e-01 1.022342770000000e-01 -1.252905870000000e-02 1.028551970000000e-01 -1.040872540000000e-02
526061718.0000000000 9.893344830000000e-02 -1.522147290000000e-02 9.353002090000000e-02 -1.772225020000000e-02 -5.580979400000000e-03 3.919025390000000e-01 2.294813420000000e-01 4.218781790000000e-02
            9.353421820000000e-02 -1.773401860000000e-02 1.000024920000000e-01 -1.811652810000000e-02 2.301310940000000e-01 4.403255070000000e-02 -4.908990590000000e-03 3.915341430000000e-01
            -5.593265900000000e-03 3.919144360000000e-01 2.301311360000000e-01 4.403017580000000e-02 9.826303979999999e-02 -2.210924140000000e-02 9.496897429999999e-02 -1.967521850000000e-02
            2.294692140000000e-01 4.218210660000000e-02 -4.921444800000000e-03 3.915323990000000e-01 9.496322340000000e-02 -1.967908520000000e-02 9.672006610000000e-02 -1.794271980000000e-02
526561301.0000000000 8.998494510000001e-02 -1.959572300000000e-02 8.444138840000000e-02 -2.127137160000000e-02 8.568122459999999e-02 3.823447160000000e-01 2.345228280000000e-01 -1.166901270000000e-02
            8.444898400000000e-02 -2.128716990000000e-02 9.106096070000000e-02 -2.250971650000000e-02 2.355822930000000e-01 -1.001223920000000e-02 8.627294050000001e-02 3.818233020000000e-01
            8.568953140000000e-02 3.823390340000000e-01 2.355785570000000e-01 -1.002062710000000e-02 8.926968520000000e-02 -2.602343540000000e-02 8.516215739999999e-02 -2.291293840000000e-02
            2.345187070000000e-01 -1.168138560000000e-02 8.625141240000000e-02 3.818115360000000e-01 8.516209080000001e-02 -2.288130660000000e-02 8.774017570000001e-02 -2.184026680000000e-02
527060884.0000000000 8.014001990000000e-02 -1.936700260000000e-02 7.463001060000000e-02 -2.023958490000000e-02 1.724931900000000e-01 3.515032020000000e-01 2.272850880000000e-01 -6.588725149999999e-02
            7.464166360000000e-02 -2.024354490000000e-02 8.122111710000000e-02 -2.230657560000000e-02 2.287107040000000e-01 -6.451370660000000e-02 1.729292290000000e-01 3.508851120000000e-01
            1.724978650000000e-01 3.515141220000000e-01 2.287115150000000e-01 -6.449869250000000e-02 7.943253550000000e-02 -2.536821160000000e-02 7.484467670000000e-02 -2.137593570000000e-02
            2.272778490000000e-01 -6.589249420000000e-02 1.729309170000000e-01 3.508864370000000e-01 7.485099300000000e-02 -2.137406480000000e-02 7.791317330000000e-02 -2.120714320000000e-02
527560467.0000000000 7.162634660000000e-02 -1.468797970000000e-02 6.629974170000000e-02 -1.472391060000000e-02 2.496864500000000e-01 3.008766340000000e-01 2.075939310000000e-01 -1.177874620000000e-01
            6.629277200000000e-02 -1.471734280000000e-02 7.267266059999999e-02 -1.761179110000000e-02 2.093264970000000e-01 -1.167659600000000e-01 2.499576130000000e-01 3.001607040000000e-01
            2.496903500000000e-01 3.008990330000000e-01 2.093396780000000e-01 -1.167560380000000e-01 7.092651620000000e-02 -2.024294200000000e-02 6.623060240000000e-02 -1.534189880000000e-02
            2.075930000000000e-01 -1.177942420000000e-01 2.499460940000000e-01 3.001746820000000e-01 6.622905710000000e-02 -1.533440630000000e-02 6.942551570000000e-02 -1.607468110000000e-02
528060050.0000000000 6.636926990000000e-02 -6.614164260000000e-03 6.138927880000000e-02 -5.888150380000000e-03 3.125287920000000e-01 2.333504450000000e-01 1.759003800000000e-01 -1.644365160000000e-01
            6.141909660000000e-02 -5.880690180000000e-03 6.742279090000000e-02 -9.523520330000000e-03 1.778430330000000e-01 -1.638301160000000e-01 3.126160140000000e-01 2.325746860000000e-01
            3.125187490000000e-01 2.333364670000000e-01 1.778424110000000e-01 -1.638240850000000e-01 6.573775020000000e-02 -1.169620710000000e-02 6.127173730000000e-02 -6.011928190000000e-03
            1.758855000000000e-01 -1.644254000000000e-01 3.126119530000000e-01 2.325815100000000e-01 6.127029830000000e-02 -5.994242580000000e-03 6.424752260000000e-02 -7.558176970000000e-03
528559633.0000000000 6.559059120000001e-02 2.919421720000000e-03 6.114727790000000e-02 4.281339420000000e-03 3.572332430000000e-01 1.530535890000000e-01 1.333890340000000e-01 -2.027540050000000e-01
            6.116009150000000e-02 4.278270700000000e-03 6.664264970000000e-02 3.413772050000000e-05 1.354362810000000e-01 -2.026189760000000e-01 3.571467260000000e-01 1.522977650000000e-01
            3.572389270000000e-01 1.530595000000000e-01 1.354469960000000e-01 -2.026329420000000e-01 6.509164880000000e-02 -1.729695230000000e-03 6.110063910000000e-02 4.577535700000000e-03
            1.333976260000000e-01 -2.027601310000000e-01 3.571461200000000e-01 1.522939910000000e-01 6.109657340000000e-02 4.574624150000000e-03 6.357532530000000e-02 2.393403650000000e-03
529059216.0000000000 6.945697620000001e-02 1.160611360000000e-02 6.563291210000000e-02 1.343895540000000e-02 3.814344390000000e-01 6.505465840000001e-02 8.232375000000000e-02 -2.300200960000000e-01
            6.561761060000000e-02 1.344194770000000e-02 7.050871039999999e-02 8.732787200000000e-03 8.433630979999999e-02 -2.303851600000000e-01 3.811609200000000e-01 6.434461470000000e-02
            3.814352980000000e-01 6.505170300000000e-02 8.435549090000000e-02 -2.303778670000000e-01 6.910979480000000e-02 7.411063830000000e-03 6.573745659999999e-02 1.402435890000000e-02
            8.231987420000000e-02 -2.300341510000000e-01 3.811687950000000e-01 6.434571259999999e-02 6.573347830000000e-02 1.401075410000000e-02 6.757083300000000e-02 1.150369290000000e-02
529558799.0000000000 7.697388180000000e-02 1.737214440000000e-02 7.375575240000000e-02 1.950786090000000e-02 3.842310190000000e-01 -2.537306360000000e-02 2.576072140000000e-02 -2.441406150000000e-01
            7.376212140000001e-02 1.949943210000000e-02 7.804727540000000e-02 1.451339530000000e-02 2.765123410000000e-02 -2.449931010000000e-01 3.838264820000000e-01 -2.600280780000000e-02
            3.842420780000000e-01 -2.538130830000000e-02 2.765610330000000e-02 -2.449781780000000e-01 7.682825530000000e-02 1.362173150000000e-02 7.411434890000000e-02 2.025119300000000e-02
            2.575749630000000e-02 -2.441543670000000e-01 3.838113980000000e-01 -2.600389830000000e-02 7.413269480000000e-02 2.025529360000000e-02 7.529078160000000e-02 1.768442570000000e-02
530058382.0000000000 8.631823080000001e-02 1.892800880000000e-02 8.370386080000000e-02 2.114820570000000e-02 3.661590140000000e-01 -1.131899480000000e-01 -3.265220800000000e-02 -2.441384250000000e-01
            8.369861030000000e-02 2.116774230000000e-02 8.740926970000000e-02 1.606421560000000e-02 -3.098362720000000e-02 -2.453982580000000e-01 3.656134750000000e-01 -1.137079930000000e-01
            3.661569470000000e-01 -1.131875050000000e-01 -3.099077590000000e-02 -2.453986620000000e-01 8.643797300000000e-02 1.559692520000000e-02 8.430933800000000e-02 2.199947200000000e-02
            -3.264664050000000e-02 -2.441361190000000e-01 3.656027940000000e-01 -1.137077170000000e-01 8.432096380000000e-02 2.197962220000000e-02 8.485661379999999e-02 1.964555210000000e-02
530557965.0000000000 9.533428980000000e-02 1.591107820000000e-02 9.321546209999999e-02 1.814136660000000e-02 3.287808460000000e-01 -1.938341470000000e-01 -8.921994830000000e-02 -2.301312140000000e-01
            9.322013129999999e-02 1.814879700000000e-02 9.646115900000000e-02 1.304090270000000e-02 -8.789530950000000e-02 -2.317510210000000e-01 3.281086910000000e-01 -1.942130300000000e-01
            3.287677200000000e-01 -1.938434110000000e-01 -8.790478490000000e-02 -2.317621170000000e-01 9.580255970000000e-02 1.296649870000000e-02 9.407919810000000e-02 1.893483910000000e-02
            -8.922494430000000e-02 -2.301300480000000e-01 3.281199060000000e-01 -1.942038360000000e-01 9.407351500000000e-02 1.892862200000000e-02 9.419019910000000e-02 1.703955450000000e-02
531057548.0000000000 1.019950420000000e-01 9.051782180000001e-03 1.002834310000000e-01 1.119129110000000e-02 2.743774810000000e-01 -2.634853590000000e-01 -1.406409620000000e-01 -2.032927580000000e-01
            1.002812860000000e-01 1.117987990000000e-02 1.031423280000000e-01 6.170000220000000e-03 -1.397292420000000e-01 -2.051735410000000e-01 2.736515130000000e-01 -2.636820800000000e-01
            2.743791090000000e-01 -2.634709300000000e-01 -1.397269650000000e-01 -2.051677140000000e-01 1.028589470000000e-01 6.460803350000000e-03 1.013231100000000e-01 1.190274230000000e-02
            -1.406275360000000e-01 -2.032829420000000e-01 2.736576690000000e-01 -2.636826760000000e-01 1.013436750000000e-01 1.188611660000000e-02 1.012269990000000e-01 1.054613220000000e-02
531557131.0000000000 1.048870680000000e-01 -1.754458720000000e-04 1.034098050000000e-01 1.848813230000000e-03 2.058649560000000e-01 -3.188599410000000e-01 -1.841991320000000e-01 -1.654380180000000e-01
            1.034047130000000e-01 1.856286810000000e-03 1.060260670000000e-01 -3.065411020000000e-03 -1.837835800000000e-01 -1.674987470000000e-01 2.051069130000000e-01 -3.188974690000000e-01
            2.058546440000000e-01 -3.188604600000000e-01 -1.837630580000000e-01 -1.674941910000000e-01 1.061568180000000e-01 -2.432211790000000e-03 1.046486000000000e-01 2.420820470000000e-03
            -1.841986640000000e-01 -1.654456990000000e-01 2.051089700000000e-01 -3.188989940000000e-01 1.046394940000000e-01 2.412021140000000e-03 1.045095460000000e-01 1.665370110000000e-03
532056714.0000000000 1.032797410000000e-01 -9.828222680000000e-03 1.019839830000000e-01 -7.858231489999999e-03 1.265676510000000e-01 -3.572758650000000e-01 -2.179199850000000e-01 -1.188719990000000e-01
            1.019825690000000e-01 -7.842030159999999e-03 1.044441130000000e-01 -1.271525210000000e-02 -2.179626530000000e-01 -1.209561460000000e-01 1.258198130000000e-01 -3.571340400000000e-01
            1.265635380000000e-01 -3.572789320000000e-01 -2.179636960000000e-01 -1.209680590000000e-01 1.050709620000000e-01 -1.181061330000000e-02 1.033579060000000e-01 -7.471443890000000e-03
            -2.179279630000000e-01 -1.188608210000000e-01 1.258339170000000e-01 -3.571314880000000e-01 1.033303050000000e-01 -7.451261380000000e-03 1.034227220000000e-01 -7.695250200000000e-03
532556297.0000000000 9.750291190000000e-02 -1.784903760000000e-02 9.629163050000000e-02 -1.584470090000000e-02 4.040590590000000e-02 -3.766040030000000e-01 -2.403264990000000e-01 -6.588169250000001e-02
            9.627562269999999e-02 -1.585718430000000e-02 9.863630860000000e-02 -2.075791720000000e-02 -2.408584930000000e-01 -6.794873590000000e-02 3.971703410000000e-02 -3.762915260000000e-01
            4.040962400000000e-02 -3.765916160000000e-01 -2.408573390000000e-01 -6.795153210000000e-02 9.985685210000000e-02 -1.965434700000000e-02 9.774197430000001e-02 -1.570452550000000e-02
            -2.403246440000000e-01 -6.588281440000000e-02 3.971098400000000e-02 -3.762799690000000e-01 9.774327280000000e-02 -1.569756390000000e-02 9.820501650000001e-02 -1.552541010000000e-02
533055880.0000000000 8.863467009999999e-02 -2.250534790000000e-02 8.753742300000000e-02 -2.038465170000000e-02 -4.821768330000000e-02 -3.754983000000000e-01 -2.504018530000000e-01 -9.016528330000001e-03
            8.753867570000000e-02 -2.038866810000000e-02 8.977588830000000e-02 -2.542713300000000e-02 -2.513837290000000e-01 -1.088900630000000e-02 -4.882597470000000e-02 -3.750286130000000e-01
            -4.824508340000000e-02 -3.754812170000000e-01 -2.513744110000000e-01 -1.090118770000000e-02 9.160317749999999e-02 -2.423625500000000e-02 8.906305080000000e-02 -2.050057740000000e-02
            -2.503955020000000e-01 -9.007426799999999e-03 -4.882409290000000e-02 -3.750254640000000e-01 8.905885010000000e-02 -2.050040130000000e-02 8.997200850000001e-02 -2.008313710000000e-02
533555463.0000000000 7.853300310000000e-02 -2.274029250000000e-02 7.762262039999999e-02 -2.042462460000000e-02 -1.344556120000000e-01 -3.535593160000000e-01 -2.474318710000000e-01 4.924754070000000e-02
            7.761460840000001e-02 -2.040941490000000e-02 7.966954850000001e-02 -2.564405960000000e-02 -2.488345120000000e-01 4.760673700000000e-02 -1.349388140000000e-01 -3.529945380000000e-01
            -1.344533510000000e-01 -3.535752990000000e-01 -2.488455640000000e-01 4.761361660000000e-02 8.213237830000000e-02 -2.448830620000000e-02 7.912392710000000e-02 -2.083943280000000e-02
            -2.474252120000000e-01 4.923399390000000e-02 -1.349168870000000e-01 -3.529886200000000e-01 7.913591840000000e-02 -2.082102700000000e-02 8.050311030000000e-02 -2.033968590000000e-02
534055046.0000000000 6.936683770000000e-02 -1.837346190000000e-02 6.872200270000001e-02 -1.581011780000000e-02 -2.132081240000000e-01 -3.117623310000000e-01 -2.311013210000000e-01 1.059972350000000e-01
            6.872782080000001e-02 -1.581973530000000e-02 7.047690460000000e-02 -2.128179220000000e-02 -2.328546690000000e-01 1.047402750000000e-01 -2.135343170000000e-01 -3.111093420000000e-01
            -2.132020890000000e-01 -3.117647110000000e-01 -2.328584310000000e-01 1.047351790000000e-01 7.358120840000000e-02 -2.029407530000000e-02 7.014791080000000e-02 -1.657295430000000e-02
            -2.310820970000000e-01 1.060039240000000e-01 -2.135334110000000e-01 -3.110857480000000e-01 7.014644070000001e-02 -1.657426060000000e-02 7.198383429999999e-02 -1.615069220000000e-02
534554629.0000000000 6.316123110000001e-02 -1.031107940000000e-02 6.292218060000000e-02 -7.591939590000000e-03 -2.796944950000000e-01 -2.524086810000000e-01 -2.016202120000000e-01 1.581828430000000e-01
            6.293809220000000e-02 -7.590348910000000e-03 6.424915560000000e-02 -1.320133960000000e-02 -2.036480690000000e-01 1.573564960000000e-01 -2.798436470000000e-01 -2.516731910000000e-01
            -2.796948020000000e-01 -2.524124570000000e-01 -2.036523670000000e-01 1.573568840000000e-01 6.794187770000000e-02 -1.251998460000000e-02 6.415256029999999e-02 -8.669705930000000e-03
            -2.016197310000000e-01 1.581831670000000e-01 -2.798447850000000e-01 -2.516734570000000e-01 6.416766940000000e-02 -8.668679800000001e-03 6.635209320000000e-02 -8.421376669999999e-03
535054212.0000000000 6.129921470000000e-02 -3.671043900000000e-04 6.163134610000000e-02 2.452402840000000e-03 -3.298748630000000e-01 -1.791272510000000e-01 -1.600881250000000e-01 2.025348990000000e-01
            6.162587720000000e-02 2.451049990000000e-03 6.239500260000000e-02 -3.232014000000000e-03 -1.622615360000000e-01 2.022165820000000e-01 -3.298626310000000e-01 -1.783970220000000e-01
            -3.298680460000000e-01 -1.791418760000000e-01 -1.622638840000000e-01 2.022153490000000e-01 6.659209960000000e-02 -2.995927910000000e-03 6.253054910000000e-02 1.074750950000000e-03
            -1.600793690000000e-01 2.025450530000000e-01 -3.298486390000000e-01 -1.783962600000000e-01 6.253118360000000e-02 1.077185650000000e-03 6.498541600000000e-02 1.109374910000000e-03
535553795.0000000000 6.417713849999999e-02 9.263664700000000e-03 6.512552910000000e-02 1.198850720000000e-02 -3.609869530000000e-01 -9.658629810000000e-02 -1.085434730000000e-01 2.360089150000000e-01
            6.513362320000000e-02 1.198855460000000e-02 6.528737570000000e-02 6.400154630000000e-03 -1.107666620000000e-01 2.361984630000000e-01 -3.607993270000000e-01 -9.585705740000000e-02
            -3.609792890000000e-01 -9.657598520000001e-02 -1.107550620000000e-01 2.362006420000000e-01 6.987908670000000e-02 6.121833890000000e-03 6.559046100000000e-02 1.039412790000000e-02
            -1.085495220000000e-01 2.359973040000000e-01 -3.607839870000000e-01 -9.585539140000000e-02 6.558779900000000e-02 1.039068140000000e-02 6.826369650000000e-02 1.018189630000000e-02
536053378.0000000000 7.108284939999999e-02 1.639677110000000e-02 7.262831290000001e-02 1.884804030000000e-02 -3.716603680000000e-01 -9.803866410000001e-03 -5.002498690000000e-02 2.561350330000000e-01
            7.262526190000000e-02 1.883237600000000e-02 7.220212270000000e-02 1.355274840000000e-02 -5.214065620000000e-02 2.568523770000000e-01 -3.713119960000000e-01 -9.142660580000000e-03
            -3.716623850000000e-01 -9.797396650000000e-03 -5.215798320000000e-02 2.568385440000000e-01 7.701462210000000e-02 1.267466910000000e-02 7.259018300000000e-02 1.713752280000000e-02
            -5.004010730000000e-02 2.561370960000000e-01 -3.713207020000000e-01 -9.142402910000000e-03 7.258755150000000e-02 1.715365730000000e-02 7.539657150000000e-02 1.672270740000000e-02
536552961.0000000000 8.033168010000000e-02 1.950367350000000e-02 8.243243629999999e-02 2.147224520000000e-02 -3.619669360000000e-01 7.627520740000000e-02 1.174070470000000e-02 2.615381330000000e-01
            8.242213740000000e-02 2.146690850000000e-02 8.147689520000000e-02 1.668613140000000e-02 9.856322710000000e-03 2.627302830000000e-01 -3.614961840000000e-01 7.681908980000000e-02
            -3.619649360000000e-01 7.627671360000000e-02 9.856861309999999e-03 2.627358450000000e-01 8.640277940000000e-02 1.517749150000000e-02 8.182589010000001e-02 1.984696420000000e-02
            1.175227140000000e-02 2.615442570000000e-01 -3.614882080000000e-01 7.682532550000000e-02 8.182197560000000e-02 1.984897070000000e-02 8.475023819999999e-02 1.923198880000000e-02
537052544.0000000000 8.982932809999999e-02 1.805906440000000e-02 9.228924980000000e-02 1.934452540000000e-02 -3.330570380000000e-01 1.570845480000000e-01 7.293117630000000e-02 2.519687230000000e-01
            9.228699130000000e-02 1.935595330000000e-02 9.099655570000000e-02 1.521093100000000e-02 7.137160369999999e-02 2.535681860000000e-01 -3.324565700000000e-01 1.575177690000000e-01
            -3.330511910000000e-01 1.570955580000000e-01 7.135964640000000e-02 2.535612170000000e-01 9.587397930000000e-02 1.313945060000000e-02 9.116256620000000e-02 1.801293670000000e-02
            7.292667690000000e-02 2.519638240000000e-01 -3.324478920000000e-01 1.575105470000000e-01 9.117027430000001e-02 1.799578880000000e-02 9.416847389999999e-02 1.716490730000000e-02
537552127.0000000000 9.750082800000000e-02 1.250267360000000e-02 1.000939820000000e-01 1.302860100000000e-02 -2.868469300000000e-01 2.287706030000000e-01 1.298719740000000e-01 2.282995730000000e-01
            1.000857880000000e-01 1.302574730000000e-02 9.867792290000001e-02 9.645777540000001e-03 1.287092970000000e-01 2.302262400000000e-01 -2.861536690000000e-01 2.290213800000000e-01
            -2.868558250000000e-01 2.287539100000000e-01 1.287235610000000e-01 2.302280780000000e-01 1.033780120000000e-01 7.027189360000000e-03 9.855580170000000e-02 1.211091270000000e-02
            1.298617200000000e-01 2.283067270000000e-01 -2.861576240000000e-01 2.290252900000000e-01 9.854764780000000e-02 1.209574360000000e-02 1.016764240000000e-01 1.107426730000000e-02
538051710.0000000000 1.017422180000000e-01 4.139549280000000e-03 1.042252450000000e-01 3.887402740000000e-03 -2.258670460000000e-01 2.879051070000000e-01 1.795199550000000e-01 1.922351520000000e-01
            1.042388490000000e-01 3.892036040000000e-03 1.029385640000000e-01 1.295329990000000e-03 1.788350930000000e-01 1.943910050000000e-01 -2.251437030000000e-01 2.879911020000000e-01
            -2.258702230000000e-01 2.879039380000000e-01 1.788450610000000e-01 1.943854140000000e-01 1.073467940000000e-01 -1.807833080000000e-03 1.023844850000000e-01 3.515554860000000e-03
            1.795226040000000e-01 1.922465420000000e-01 -2.251432930000000e-01 2.879983870000000e-01 1.023777940000000e-01 3.526462320000000e-03 1.056167150000000e-01 2.255921310000000e-03
538551293.0000000000 1.016828360000000e-01 -5.162388180000000e-03 1.038195560000000e-01 -6.098989640000000e-03 -1.531190810000000e-01 3.316738840000000e-01 2.194627460000000e-01 1.459386530000000e-01
            1.038257590000000e-01 -6.102530410000000e-03 1.029015660000000e-01 -8.019644390000000e-03 2.193132480000000e-01 1.481987540000000e-01 -1.523886380000000e-01 3.316002440000000e-01
            -1.531199320000000e-01 3.316651100000000e-01 2.193077180000000e-01 1.482146080000000e-01 1.069443890000000e-01 -1.151017530000000e-02 1.018864320000000e-01 -5.837511000000000e-03
            2.194396900000000e-01 1.459511880000000e-01 -1.523940500000000e-01 3.315943550000000e-01 1.018796560000000e-01 -5.866195480000000e-03 1.052022580000000e-01 -7.422673940000000e-03
539050876.0000000000 9.742009000000000e-02 -1.338193590000000e-02 9.898018490000000e-02 -1.486514280000000e-02 -7.214743179999999e-02 3.577390150000000e-01 2.479517000000000e-01 9.190706890000000e-02
            9.897490790000001e-02 -1.487039560000000e-02 9.861217650000000e-02 -1.626716740000000e-02 2.483207590000000e-01 9.413832790000000e-02 -7.145687670000000e-02 3.575077580000000e-01
            -7.215173150000000e-02 3.577508370000000e-01 2.483312850000000e-01 9.413960130000000e-02 1.022221300000000e-01 -2.002932060000000e-02 9.712867250000000e-02 -1.398360560000000e-02
            2.479442400000000e-01 9.188547430000001e-02 -7.146327619999999e-02 3.575175210000000e-01 9.712927500000000e-02 -1.397424580000000e-02 1.005034050000000e-01 -1.591643090000000e-02
539550459.0000000000 8.983622149999999e-02 -1.873253310000000e-02 9.070049110000000e-02 -2.053840600000000e-02 1.294989970000000e-02 3.644696840000000e-01 2.636618330000000e-01 3.262824960000000e-02
            9.070266300000000e-02 -2.052919720000000e-02 9.102815340000001e-02 -2.162069450000000e-02 2.645464800000000e-01 3.472665010000000e-02 1.356892370000000e-02 3.640809280000000e-01
            1.293653840000000e-02 3.644665210000000e-01 2.645398780000000e-01 3.473381850000000e-02 9.418275199999999e-02 -2.554436830000000e-02 8.912714150000001e-02 -1.908443100000000e-02
            2.636641270000000e-01 3.263521560000000e-02 1.355782730000000e-02 3.640697350000000e-01 8.912451890000000e-02 -1.907466730000000e-02 9.246022550000001e-02 -2.142512560000000e-02
540050042.0000000000 8.060444120000000e-02 -1.999151750000000e-02 8.072896960000001e-02 -2.185395010000000e-02 9.755407020000000e-02 3.510373820000000e-01 2.657188660000000e-01 -2.912055860000000e-02
            8.072258750000000e-02 -2.185456480000000e-02 8.176967870000000e-02 -2.288199210000000e-02 2.670460070000000e-01 -2.727616420000000e-02 9.805655250000000e-02 3.505231260000000e-01
            9.755510960000000e-02 3.510524270000000e-01 2.670422550000000e-01 -2.726968750000000e-02 8.445531480000000e-02 -2.685833490000000e-02 7.958749570000000e-02 -1.994568170000000e-02
            2.657185340000000e-01 -2.914269960000000e-02 9.807228300000000e-02 3.505224440000000e-01 7.958775470000000e-02 -1.993616080000000e-02 8.274534729999999e-02 -2.273628240000000e-02
540549625.0000000000 7.176127039999999e-02 -1.679283880000000e-02 7.121858260000000e-02 -1.847901210000000e-02 1.767764730000000e-01 3.179177370000000e-01 2.535130470000000e-01 -9.045217000000000e-02
            7.121130140000000e-02 -1.848338250000000e-02 7.294152170000000e-02 -1.968504410000000e-02 2.552765440000000e-01 -8.895601020000000e-02 1.771497460000000e-01 3.172853050000000e-01
            1.767746240000000e-01 3.179195970000000e-01 2.552588020000000e-01 -8.893973710000000e-02 7.516872120000000e-02 -2.362183700000000e-02 7.059063180000000e-02 -1.627432110000000e-02
            2.535077010000000e-01 -9.044924000000000e-02 1.771516830000000e-01 3.172829420000000e-01 7.059944870000000e-02 -1.627350470000000e-02 7.348657600000000e-02 -1.950863540000000e-02
541049208.0000000000 6.541795240000001e-02 -9.813834719999999e-03 6.431194820000000e-02 -1.112674780000000e-02 2.457881040000000e-01 2.668494720000000e-01 2.271314650000000e-01 -1.480404790000000e-01
            6.432910990000000e-02 -1.111679490000000e-02 6.659370100000001e-02 -1.268065070000000e-02 2.292090650000000e-01 -1.469602200000000e-01 2.460121710000000e-01 2.661534810000000e-01
            2.457945640000000e-01 2.668506300000000e-01 2.292056330000000e-01 -1.469687470000000e-01 6.839114440000001e-02 -1.644864960000000e-02 6.426115670000000e-02 -8.802079870000000e-03
            2.271348400000000e-01 -1.480351290000000e-01 2.460087180000000e-01 2.661700280000000e-01 6.427859599999999e-02 -8.812081870000000e-03 6.672222340000000e-02 -1.236828430000000e-02
541548791.0000000000 6.307661410000000e-02 -6.238585250000000e-04 6.159417340000000e-02 -1.424342030000000e-03 3.004030910000000e-01 2.009952740000000e-01 1.874548630000000e-01 -1.984278860000000e-01
            6.158640060000000e-02 -1.428978090000000e-03 6.425592750000000e-02 -3.469927180000000e-03 1.897307380000000e-01 -1.979005790000000e-01 3.004584170000000e-01 2.002707420000000e-01
            3.004094720000000e-01 2.009903210000000e-01 1.897216280000000e-01 -1.978877440000000e-01 6.567720770000000e-02 -7.010125360000000e-03 6.209532270000000e-02 8.452399910000000e-04
            1.874515920000000e-01 -1.984502380000000e-01 3.004680260000000e-01 2.002796380000000e-01 6.208926180000000e-02 8.428033650000000e-04 6.399227270000001e-02 -2.936809720000000e-03
542048374.0000000000 6.533661030000000e-02 8.642301270000000e-03 6.365645139999999e-02 8.375483499999999e-03 3.375077530000000e-01 1.245238180000000e-01 1.363186880000000e-01 -2.383354510000000e-01
            6.365490020000000e-02 8.363574590000001e-03 6.650921250000000e-02 5.804480850000000e-03 1.386631840000000e-01 -2.383447690000000e-01 3.373743420000000e-01 1.238069080000000e-01
            3.375101210000000e-01 1.245189270000000e-01 1.386584030000000e-01 -2.383326090000000e-01 6.760481409999999e-02 2.585675410000000e-03 6.460724470000000e-02 1.047115740000000e-02
            1.363104840000000e-01 -2.383303400000000e-01 3.373860770000000e-01 1.238103070000000e-01 6.461823420000000e-02 1.045592280000000e-02 6.591003410000000e-02 6.634141360000000e-03
542547957.0000000000 7.166826670000000e-02 1.578246620000000e-02 6.998230140000000e-02 1.601099880000000e-02 3.553456280000000e-01 4.219868810000000e-02 7.665332190000000e-02 -2.648890210000000e-01
            6.997950050000000e-02 1.600412240000000e-02 7.285097209999999e-02 1.297519510000000e-02 7.895321399999999e-02 -2.654602670000000e-01 3.550482960000000e-01 4.153157260000000e-02
            3.553452070000000e-01 4.220264330000000e-02 7.896459520000000e-02 -2.654520970000000e-01 7.368745180000000e-02 1.015069850000000e-02 7.129770119999999e-02 1.784592740000000e-02
            7.666846700000000e-02 -2.648961600000000e-01 3.550659470000000e-01 4.153623510000000e-02 7.129899830000000e-02 1.784545840000000e-02 7.199144540000001e-02 1.415856990000000e-02
543047540.0000000000 8.060511800000000e-02 1.918635690000000e-02 7.903317560000001e-02 1.982243780000000e-02 3.535282470000000e-01 -4.118567670000000e-02 1.217707340000000e-02 -2.763069120000000e-01
            7.906009220000000e-02 1.981459290000000e-02 8.181488230000000e-02 1.638234410000000e-02 1.430125960000000e-02 -2.773865610000000e-01 3.531087400000000e-01 -4.174524990000000e-02
            3.535305490000000e-01 -4.117733470000000e-02 1.430377790000000e-02 -2.773977640000000e-01 8.248809999999999e-02 1.399225000000000e-02 8.062136340000001e-02 2.136918310000000e-02
            1.218052960000000e-02 -2.763186820000000e-01 3.531024960000000e-01 -4.175563080000000e-02 8.062489550000000e-02 2.135355560000000e-02 8.074286930000001e-02 1.800701040000000e-02
543547123.0000000000 9.013493500000000e-02 1.809215630000000e-02 8.874318959999999e-02 1.902316900000000e-02 3.327899610000000e-01 -1.211468210000000e-01 -5.306206720000000e-02 -2.719492350000000e-01
            8.874856120000001e-02 1.901081710000000e-02 9.136438380000000e-02 1.527274070000000e-02 -5.125537960000000e-02 -2.734990680000000e-01 3.322601880000000e-01 -1.216113120000000e-01
            3.328010910000000e-01 -1.211484680000000e-01 -5.125658610000000e-02 -2.734845980000000e-01 9.196735410000000e-02 1.340653320000000e-02 9.046656850000000e-02 2.029511600000000e-02
            -5.306618310000000e-02 -2.719391770000000e-01 3.322453820000000e-01 -1.216095870000000e-01 9.048175379999999e-02 2.028274710000000e-02 9.020194370000000e-02 1.740148780000000e-02
544046706.0000000000 9.810101450000000e-02 1.277284040000000e-02 9.692849870000000e-02 1.388252850000000e-02 2.947325370000000e-01 -1.937704030000000e-01 -1.151865280000000e-01 -2.523276900000000e-01
            9.692309260000000e-02 1.389322060000000e-02 9.936949460000000e-02 9.963126430000000e-03 -1.137931910000000e-01 -2.542480290000000e-01 2.940880380000000e-01 -1.940955150000000e-01
            2.947286730000000e-01 -1.937673690000000e-01 -1.137942410000000e-01 -2.542599170000000e-01 1.000340140000000e-01 8.585451379999999e-03 9.876959800000000e-02 1.492237140000000e-02
            -1.151882630000000e-01 -2.523283480000000e-01 2.940965410000000e-01 -1.941010540000000e-01 9.876493330000000e-02 1.490410650000000e-02 9.825135490000000e-02 1.263732530000000e-02
544546289.0000000000 1.028559700000000e-01 4.415480310000000e-03 1.018198250000000e-01 5.598363440000000e-03 2.414798890000000e-01 -2.556439320000000e-01 -1.707704920000000e-01 -2.189592150000000e-01
            1.018239120000000e-01 5.611790640000000e-03 1.041209440000000e-01 1.573635480000000e-03 -1.698722180000000e-01 -2.211684370000000e-01 2.407889230000000e-01 -2.558133760000000e-01
            2.414719440000000e-01 -2.556321240000000e-01 -1.698678380000000e-01 -2.211622440000000e-01 1.050170310000000e-01 7.536713570000000e-04 1.037624770000000e-01 6.458461100000000e-03
            -1.707820340000000e-01 -2.189546580000000e-01 2.407806740000000e-01 -2.558138600000000e-01 1.037628700000000e-01 6.469071750000000e-03 1.032044850000000e-01 4.766167680000000e-03
545045872.0000000000 1.033567550000000e-01 -5.256538980000000e-03 1.024079760000000e-01 -3.999481330000000e-03 1.756936740000000e-01 -3.038102940000000e-01 -2.170618410000000e-01 -1.739032570000000e-01
            1.023999830000000e-01 -3.997782350000000e-03 1.046357990000000e-01 -8.091368280000000e-03 -2.166808710000000e-01 -1.762744000000000e-01 1.749908210000000e-01 -3.038206540000000e-01
            1.757014170000000e-01 -3.038193040000000e-01 -2.166825960000000e-01 -1.762633070000000e-01 1.058836560000000e-01 -8.462961640000001e-03 1.044600110000000e-01 -3.297181230000000e-03
            -2.170638220000000e-01 -1.739042100000000e-01 1.749853310000000e-01 -3.038118110000000e-01 1.044697230000000e-01 -3.300758980000000e-03 1.040569190000000e-01 -4.400373320000000e-03
545545455.0000000000 9.948843650000000e-02 -1.417833890000000e-02 9.853065240000000e-02 -1.286888030000000e-02 1.005594210000000e-01 -3.357826950000000e-01 -2.519192870000000e-01 -1.196220210000000e-01
            9.854489620000000e-02 -1.285933190000000e-02 1.007534840000000e-01 -1.704487640000000e-02 -2.520997560000000e-01 -1.220348860000000e-01 9.986830690000000e-02 -3.356241020000000e-01
            1.005453680000000e-01 -3.357935470000000e-01 -2.521020260000000e-01 -1.220370500000000e-01 1.025152030000000e-01 -1.702022030000000e-02 1.007601050000000e-01 -1.230833110000000e-02
            -2.519145790000000e-01 -1.196310910000000e-01 9.987144370000001e-02 -3.356225150000000e-01 1.007706820000000e-01 -1.230062950000000e-02 1.006893890000000e-01 -1.295365710000000e-02
546045038.0000000000 9.198998930000001e-02 -2.050194040000000e-02 9.099845690000000e-02 -1.905468090000000e-02 1.980598720000000e-02 -3.496497440000000e-01 -2.737695460000000e-01 -5.879760830000000e-02
            9.099936120000000e-02 -1.905193040000000e-02 9.324796850000000e-02 -2.338463860000000e-02 -2.744930670000000e-01 -6.108112360000000e-02 1.918213560000000e-02 -3.493417000000000e-01
            1.982408280000000e-02 -3.496621900000000e-01 -2.745070200000000e-01 -6.108589760000000e-02 9.563855920000000e-02 -2.309973190000000e-02 9.346323220000000e-02 -1.869766230000000e-02
            -2.737746540000000e-01 -5.878074200000000e-02 1.917466550000000e-02 -3.493411390000000e-01 9.346291650000001e-02 -1.868862840000000e-02 9.382978650000000e-02 -1.902939360000000e-02
546544621.0000000000 8.238321080000000e-02 -2.283261110000000e-02 8.135484740000000e-02 -2.117684100000000e-02 -6.223537530000000e-02 -3.442805710000000e-01 -2.814373550000000e-01 5.836665720000000e-03
            8.133749479999999e-02 -2.117067510000000e-02 8.361771150000000e-02 -2.570776870000000e-02 -2.826932220000000e-01 3.753606780000000e-03 -6.277088520000000e-02 -3.438225930000000e-01
            -6.223752440000000e-02 -3.442769940000000e-01 -2.826864120000000e-01 3.774721980000000e-03 8.673316170000001e-02 -2.537996060000000e-02 8.409109510000000e-02 -2.112299310000000e-02
            -2.814435410000000e-01 5.848047310000000e-03 -6.278158060000000e-02 -3.438211000000000e-01 8.409056780000000e-02 -2.110498500000000e-02 8.495081770000000e-02 -2.129786410000000e-02
547044204.0000000000 7.271443449999999e-02 -2.060985130000000e-02 7.169538830000000e-02 -1.864965080000000e-02 -1.408885550000000e-01 -3.196097530000000e-01 -2.741799430000000e-01 7.116778040000001e-02
            7.169113390000000e-02 -1.865587620000000e-02 7.393771310000000e-02 -2.348012070000000e-02 -2.759010440000000e-01 6.942877209999999e-02 -1.412971400000000e-01 -3.190371220000000e-01
            -1.408922160000000e-01 -3.196146420000000e-01 -2.758966340000000e-01 6.941906770000000e-02 7.775953260000000e-02 -2.326955700000000e-02 7.466599300000000e-02 -1.901999980000000e-02
            -2.741857040000000e-01 7.116094180000000e-02 -1.413110210000000e-01 -3.190454460000000e-01 7.466353060000000e-02 -1.901902650000000e-02 7.600757470000000e-02 -1.920111370000000e-02
547543786.0000000000 6.507640140000000e-02 -1.423810730000000e-02 6.415833620000000e-02 -1.192988230000000e-02 -2.114189700000000e-01 -2.768926370000000e-01 -2.518152400000000e-01 1.338194200000000e-01
            6.416615670000000e-02 -1.193563500000000e-02 6.629074309999999e-02 -1.708013100000000e-02 -2.538906570000000e-01 1.325074710000000e-01 -2.116884120000000e-01 -2.762392710000000e-01
            -2.114052060000000e-01 -2.768837850000000e-01 -2.538983500000000e-01 1.325151520000000e-01 7.082417169999999e-02 -1.727914760000000e-02 6.731817360000000e-02 -1.285020860000000e-02
            -2.518072090000000e-01 1.338286650000000e-01 -2.116939980000000e-01 -2.762269150000000e-01 6.730768110000000e-02 -1.285414070000000e-02 6.906578519999999e-02 -1.320420670000000e-02
548043369.0000000000 6.115745100000000e-02 -5.105479460000000e-03 6.050884380000000e-02 -2.451911350000000e-03 -2.694730550000000e-01 -2.186901540000000e-01 -2.149314350000000e-01 1.901685800000000e-01
            6.051223430000000e-02 -2.448189220000000e-03 6.238888210000000e-02 -7.946853950000001e-03 -2.172636330000000e-01 1.893830840000000e-01 -2.695939610000000e-01 -2.180141350000000e-01
            -2.694769240000000e-01 -2.186943970000000e-01 -2.172755000000000e-01 1.893838690000000e-01 6.747294190000000e-02 -8.698372970000000e-03 6.367510010000001e-02 -4.027630360000000e-03
            -2.149345600000000e-01 1.901765680000000e-01 -2.695959080000000e-01 -2.180097810000000e-01 6.367046590000000e-02 -4.042314490000000e-03 6.573353470000000e-02 -4.655130540000000e-03
548542952.0000000000 6.185902820000000e-02 4.713990010000000e-03 6.155898550000000e-02 7.672092700000000e-03 -3.117025600000000e-01 -1.487681740000000e-01 -1.651987810000000e-01 2.366148650000000e-01
            6.157448570000000e-02 7.683955930000000e-03 6.308311160000001e-02 1.891502800000000e-03 -1.676872840000000e-01 2.363782120000000e-01 -3.116615580000000e-01 -1.480663300000000e-01
            -3.117126470000000e-01 -1.487625510000000e-01 -1.676832790000000e-01 2.363877320000000e-01 6.857715900000000e-02 4.034864250000000e-04 6.456487670000000e-02 5.369557430000000e-03
            -1.652079880000000e-01 2.366066020000000e-01 -3.116529510000000e-01 -1.480684520000000e-01 6.457562250000000e-02 5.368057270000000e-03 6.680944329999999e-02 4.420558330000000e-03
549042535.0000000000 6.692043960000001e-02 1.302765090000000e-02 6.712341650000000e-02 1.616903460000000e-02 -3.359748100000000e-01 -7.151368150000000e-02 -1.053459800000000e-01 2.699970640000000e-01
            6.713152120000000e-02 1.617662750000000e-02 6.816246719999999e-02 1.023687650000000e-02 -1.078262540000000e-01 2.703385400000000e-01 -3.357765760000000e-01 -7.084307860000000e-02
            -3.359720230000000e-01 -7.152296510000000e-02 -1.078271790000000e-01 2.703514780000000e-01 7.382068690000000e-02 7.918221370000001e-03 6.972139519999999e-02 1.316548210000000e-02
            -1.053434610000000e-01 2.699946390000000e-01 -3.357628690000000e-01 -7.086258950000000e-02 6.972392240000000e-02 1.316006360000000e-02 7.201627560000000e-02 1.191663780000000e-02
549542118.0000000000 7.510687900000000e-02 1.801150980000000e-02 7.584742210000001e-02 2.116785250000000e-02 -3.414691850000000e-01 8.438888520000000e-03 -3.902966360000000e-02 2.880334940000000e-01
            7.586170100000000e-02 2.117431050000000e-02 7.635257199999999e-02 1.521825450000000e-02 -4.134801280000000e-02 2.889599930000000e-01 -3.411049190000000e-01 9.023377700000000e-03
            -3.414598010000000e-01 8.430935180000000e-03 -4.134299860000000e-02 2.889733550000000e-01 8.194901409999999e-02 1.207556990000000e-02 7.784312060000000e-02 1.757560910000000e-02
            -3.900369690000000e-02 2.880324230000000e-01 -3.410928110000000e-01 9.017138900000001e-03 7.784529630000001e-02 1.757841390000000e-02 8.012036650000000e-02 1.606790330000000e-02
550041701.0000000000 8.449485210000000e-02 1.867741650000000e-02 8.577867420000000e-02 2.166596650000000e-02 -3.285055780000000e-01 8.672082840000001e-02 2.967693050000000e-02 2.896629720000000e-01
            8.578152220000000e-02 2.165191750000000e-02 8.574210309999999e-02 1.587150450000000e-02 2.761722250000000e-02 2.911358820000000e-01 -3.280249110000000e-01 8.721558180000000e-02
            -3.284995690000000e-01 8.671884080000000e-02 2.761183900000000e-02 2.911326710000000e-01 9.103555630000000e-02 1.198046890000000e-02 8.702032429999999e-02 1.765866230000000e-02
            2.966483080000000e-02 2.896764120000000e-01 -3.280318930000000e-01 8.720732240000000e-02 8.700780599999999e-02 1.767146100000000e-02 8.919998880000000e-02 1.594718930000000e-02
550541284.0000000000 9.297089800000000e-02 1.500865860000000e-02 9.471283660000000e-02 1.766910740000000e-02 -2.983118510000000e-01 1.594127660000000e-01 9.657063959999999e-02 2.750469670000000e-01
            9.471677160000000e-02 1.767340900000000e-02 9.427728820000000e-02 1.221360650000000e-02 9.492852770000000e-02 2.769361140000000e-01 -2.977254200000000e-01 1.597723160000000e-01
            -2.983034630000000e-01 1.594198820000000e-01 9.493387800000000e-02 2.769448250000000e-01 9.905756709999999e-02 7.669168600000000e-03 9.511442339999999e-02 1.351309870000000e-02
            9.658793230000000e-02 2.750482600000000e-01 -2.977416040000000e-01 1.597739570000000e-01 9.511006700000001e-02 1.350295130000000e-02 9.717725850000000e-02 1.166225840000000e-02
551040867.0000000000 9.875152020000000e-02 7.991587830000001e-03 1.008168020000000e-01 1.016957740000000e-02 -2.526907130000000e-01 2.230638170000000e-01 1.579676260000000e-01 2.453362650000000e-01
            1.008308040000000e-01 1.017274870000000e-02 1.000678330000000e-01 5.171192030000000e-03 1.567951440000000e-01 2.475682460000000e-01 -2.520534880000000e-01 2.232934910000000e-01
            -2.527030490000000e-01 2.230544100000000e-01 1.568046270000000e-01 2.475618950000000e-01 1.042198640000000e-01 1.660556460000000e-04 1.003461200000000e-01 6.080755140000000e-03
            1.579669630000000e-01 2.453280110000000e-01 -2.520577050000000e-01 2.232648600000000e-01 1.003590880000000e-01 6.096334300000000e-03 1.023237270000000e-01 4.164702140000000e-03
551540450.0000000000 1.006404800000000e-01 -8.312319900000000e-04 1.028250630000000e-01 8.229979880000000e-04 -1.940057040000000e-01 2.746360900000000e-01 2.106886140000000e-01 2.024816930000000e-01
            1.028179840000000e-01 8.252870650000000e-04 1.019768590000000e-01 -3.645654760000000e-03 2.100699670000000e-01 2.049174410000000e-01 -1.933271420000000e-01 2.747041770000000e-01
            -1.940053990000000e-01 2.746475940000000e-01 2.100719850000000e-01 2.049528120000000e-01 1.054024840000000e-01 -8.898412749999999e-03 1.015970120000000e-01 -2.914111170000000e-03
            2.106856830000000e-01 2.024788220000000e-01 -1.933236330000000e-01 2.747034240000000e-01 1.016055730000000e-01 -2.915414320000000e-03 1.035133820000000e-01 -4.890793090000000e-03
552040033.0000000000 9.829865220000000e-02 -9.463175240000000e-03 1.003953750000000e-01 -8.341838529999999e-03 -1.250376100000000e-01 3.115461520000000e-01 2.522603870000000e-01 1.488547090000000e-01
            1.003969250000000e-01 -8.334353839999999e-03 9.961441490000000e-02 -1.230462700000000e-02 2.522130240000000e-01 1.513834280000000e-01 -1.243653880000000e-01 3.114518790000000e-01
            -1.250449300000000e-01 3.115520000000000e-01 2.522108400000000e-01 1.513740390000000e-01 1.023464460000000e-01 -1.760774370000000e-02 9.856475180000000e-02 -1.157285630000000e-02
            2.522618440000000e-01 1.488563460000000e-01 -1.243720530000000e-01 3.114509340000000e-01 9.856282090000000e-02 -1.157980440000000e-02 1.004441620000000e-01 -1.357318730000000e-02
552539616.0000000000 9.223593120000000e-02 -1.605108980000000e-02 9.407527220000000e-02 -1.532326970000000e-02 -4.922538400000000e-02 3.316611720000000e-01 2.807261310000000e-01 8.712191680000000e-02
            9.408138570000001e-02 -1.533496830000000e-02 9.355435030000001e-02 -1.888721710000000e-02 2.812573270000000e-01 8.961568030000000e-02 -4.858864800000000e-02 3.314185530000000e-01
            -4.922062270000000e-02 3.316509930000000e-01 2.812646890000000e-01 8.962457220000000e-02 9.560930530000000e-02 -2.405859330000000e-02 9.186181010000000e-02 -1.795192590000000e-02
            2.807130290000000e-01 8.713030760000000e-02 -4.858551760000000e-02 3.314033760000000e-01 9.185352220000000e-02 -1.796064460000000e-02 9.373388770000000e-02 -1.999300710000000e-02
553039199.0000000000 8.378525870000000e-02 -1.909130390000000e-02 8.525221519999999e-02 -1.865080000000000e-02 2.944458550000000e-02 3.335464990000000e-01 2.946311810000000e-01 2.021656430000000e-02
            8.524975980000001e-02 -1.864308610000000e-02 8.506925890000000e-02 -2.193576470000000e-02 2.957451790000000e-01 2.251467920000000e-02 3.002141760000000e-02 3.331662040000000e-01
            2.944939730000000e-02 3.335582270000000e-01 2.957604480000000e-01 2.252264720000000e-02 8.662051720000000e-02 -2.680414850000000e-02 8.285942500000000e-02 -2.061135650000000e-02
            2.946294710000000e-01 2.021711030000000e-02 3.001206100000000e-02 3.331650000000000e-01 8.286792849999999e-02 -2.061765840000000e-02 8.475384290000000e-02 -2.274097770000000e-02
553538782.0000000000 7.481243429999999e-02 -1.783462200000000e-02 7.584316160000000e-02 -1.748712620000000e-02 1.065454180000000e-01 3.167677550000000e-01 2.929643870000000e-01 -4.871765850000000e-02
            7.585238079999999e-02 -1.750245210000000e-02 7.611020820000000e-02 -2.068146220000000e-02 2.946013420000000e-01 -4.672751550000000e-02 1.069750470000000e-01 3.162721880000000e-01
            1.065369190000000e-01 3.167811940000000e-01 2.946007020000000e-01 -4.672689800000000e-02 7.726752639999999e-02 -2.516441640000000e-02 7.354283050000000e-02 -1.886544700000000e-02
            2.929611480000000e-01 -4.870605020000000e-02 1.069767710000000e-01 3.162634820000000e-01 7.352817370000000e-02 -1.886113190000000e-02 7.541290990000001e-02 -2.110748330000000e-02
554038365.0000000000 6.739890260000000e-02 -1.250928600000000e-02 6.801633140000000e-02 -1.206265230000000e-02 1.774057240000000e-01 2.820877360000000e-01 2.752795720000000e-01 -1.161367970000000e-01
            6.801741720000000e-02 -1.205674190000000e-02 6.867649340000000e-02 -1.534114560000000e-02 2.773538220000000e-01 -1.145722680000000e-01 1.777267360000000e-01 2.815082290000000e-01
            1.774039030000000e-01 2.820969210000000e-01 2.773399890000000e-01 -1.145559960000000e-01 6.963014050000001e-02 -1.939980930000000e-02 6.595485050000000e-02 -1.295283470000000e-02
            2.752889140000000e-01 -1.161312290000000e-01 1.777130190000000e-01 2.814886120000000e-01 6.595109659999999e-02 -1.295652070000000e-02 6.777307400000000e-02 -1.536367160000000e-02
554537948.0000000000 6.328967830000000e-02 -4.241557130000000e-03 6.359861190000000e-02 -3.578306740000000e-03 2.377167490000000e-01 2.316129770000000e-01 2.419531240000000e-01 -1.782447970000000e-01
            6.361268770000000e-02 -3.583413180000000e-03 6.458819500000000e-02 -7.066544380000000e-03 2.443531220000000e-01 -1.771845710000000e-01 2.378882380000000e-01 2.309582570000000e-01
            2.377246300000000e-01 2.316026930000000e-01 2.443468910000000e-01 -1.771871860000000e-01 6.546878030000000e-02 -1.075607150000000e-02 6.191643750000000e-02 -4.177664780000000e-03
            2.419619870000000e-01 -1.782565320000000e-01 2.378818520000000e-01 2.309490530000000e-01 6.192591430000000e-02 -4.165249020000000e-03 6.363235260000000e-02 -6.733824250000000e-03
555037531.0000000000 6.353593120000001e-02 5.043868240000000e-03 6.365766030000000e-02 6.026215970000000e-03 2.839193320000000e-01 1.685859840000000e-01 1.943874430000000e-01 -2.311947840000000e-01
            6.366874960000000e-02 6.031921010000000e-03 6.481208760000000e-02 2.237196390000000e-03 1.969752590000000e-01 -2.307147170000000e-01 2.839303270000000e-01 1.679236660000000e-01
            2.839274600000000e-01 1.685890560000000e-01 1.969674140000000e-01 -2.307213970000000e-01 6.577882210000000e-02 -1.161908590000000e-03 6.235466980000000e-02 5.523398050000000e-03
            1.943828070000000e-01 -2.311930080000000e-01 2.839356220000000e-01 1.679181240000000e-01 6.235400340000000e-02 5.534241120000000e-03 6.391648440000000e-02 2.826239440000000e-03
555537114.0000000000 6.804131670000001e-02 1.320731960000000e-02 6.817016620000001e-02 1.454918900000000e-02 3.136027700000000e-01 9.706568160000000e-02 1.351213010000000e-01 -2.714574340000000e-01
            6.817676330000000e-02 1.452887480000000e-02 6.935267110000000e-02 1.042064550000000e-02 1.377571590000000e-01 -2.716162000000000e-01 3.134452580000000e-01 9.641351980000000e-02
            3.135913490000000e-01 9.708639630000000e-02 1.377435170000000e-01 -2.716127220000000e-01 7.043746690000000e-02 7.175606020000000e-03 6.721417239999999e-02 1.390436520000000e-02
            1.351261470000000e-01 -2.714445380000000e-01 3.134507540000000e-01 9.641466410000001e-02 6.722003679999999e-02 1.391050810000000e-02 6.855575630000001e-02 1.113321180000000e-02
556036697.0000000000 7.586445810000000e-02 1.837091410000000e-02 7.609567970000000e-02 1.999566230000000e-02 3.255881060000000e-01 2.142449060000000e-02 6.770859429999999e-02 -2.963949370000000e-01
            7.608690290000000e-02 2.001542560000000e-02 7.718390379999999e-02 1.559436960000000e-02 7.023072630000000e-02 -2.971652050000000e-01 3.252850910000000e-01 2.083363140000000e-02
            3.255872690000000e-01 2.142693770000000e-02 7.024013370000000e-02 -2.971455270000000e-01 7.836566060000000e-02 1.238437910000000e-02 7.537422030000000e-02 1.910074760000000e-02
            6.770593430000001e-02 -2.963981420000000e-01 3.252849220000000e-01 2.082579350000000e-02 7.537469060000000e-02 1.909850440000000e-02 7.645747850000000e-02 1.633528300000000e-02
556536280.0000000000 8.516409910000000e-02 1.939861520000000e-02 8.560130010000000e-02 2.125707150000000e-02 3.198739880000000e-01 -5.413397950000000e-02 -3.680588790000000e-03 -3.044590440000000e-01
            8.559670730000001e-02 2.125627620000000e-02 8.651069630000000e-02 1.663215270000000e-02 -1.394382950000000e-03 -3.057995950000000e-01 3.194571890000000e-01 -5.465321100000000e-02
            3.198703950000000e-01 -5.415162930000000e-02 -1.384051820000000e-03 -3.058117610000000e-01 8.772553710000000e-02 1.335620830000000e-02 8.494608920000001e-02 1.997838680000000e-02
            -3.676850120000000e-03 -3.044718910000000e-01 3.194648970000000e-01 -5.464727990000000e-02 8.495034360000001e-02 1.997904670000000e-02 8.579677660000000e-02 1.729272170000000e-02
557035863.0000000000 9.391916409999999e-02 1.611573800000000e-02 9.459794970000000e-02 1.806795720000000e-02 2.973163960000000e-01 -1.257817560000000e-01 -7.470949690000001e-02 -2.954313600000000e-01
            9.458644820000001e-02 1.806119180000000e-02 9.528014500000000e-02 1.334633390000000e-02 -7.281449869999999e-02 -2.972659830000000e-01 2.967954220000000e-01 -1.261863070000000e-01
            2.972962120000000e-01 -1.257832100000000e-01 -7.281256910000000e-02 -2.972633990000000e-01 9.640144019999999e-02 9.943431750000000e-03 9.383068009999999e-02 1.641031690000000e-02
            -7.472408200000000e-02 -2.954370290000000e-01 2.967765090000000e-01 -1.261884090000000e-01 9.381480630000000e-02 1.638984730000000e-02 9.446238300000000e-02 1.389732410000000e-02
557535446.0000000000 1.002495370000000e-01 9.299241640000001e-03 1.011316850000000e-01 1.121079920000000e-02 2.593699080000000e-01 -1.901149400000000e-01 -1.413774250000000e-01 -2.701542070000000e-01
            1.011374350000000e-01 1.122200600000000e-02 1.016218660000000e-01 6.519297660000000e-03 -1.399412120000000e-01 -2.723945650000000e-01 2.587696890000000e-01 -1.903729450000000e-01
            2.593673090000000e-01 -1.901002780000000e-01 -1.399569980000000e-01 -2.724031500000000e-01 1.025797770000000e-01 2.995053980000000e-03 1.000816820000000e-01 9.194142509999999e-03
            -1.413855030000000e-01 -2.701721760000000e-01 2.587843180000000e-01 -1.903598390000000e-01 1.000780140000000e-01 9.206360350000000e-03 1.006154960000000e-01 6.950184400000000e-03
558035029.0000000000 1.028789140000000e-01 3.863915830000000e-04 1.039115680000000e-01 2.199484710000000e-03 2.080558940000000e-01 -2.440702400000000e-01 -2.002016470000000e-01 -2.303858170000000e-01
            1.039192910000000e-01 2.186198840000000e-03 1.042630340000000e-01 -2.387232880000000e-03 -1.993324790000000e-01 -2.329003500000000e-01 2.074088810000000e-01 -2.441913370000000e-01
            2.080449010000000e-01 -2.440723650000000e-01 -1.993320630000000e-01 -2.329080280000000e-01 1.048931730000000e-01 -5.987412890000000e-03 1.024254900000000e-01 -5.014199380000000e-05
            -2.002131740000000e-01 -2.303974540000000e-01 2.074012510000000e-01 -2.441902520000000e-01 1.024156090000000e-01 -5.835432110000000e-05 1.029207580000000e-01 -2.014545150000000e-03
558534612.0000000000 1.012915780000000e-01 -8.708140479999999e-03 1.023598810000000e-01 -7.050538930000000e-03 1.457560570000000e-01 -2.849998300000000e-01 -2.483579680000000e-01 -1.783933960000000e-01
            1.023469970000000e-01 -7.054972670000000e-03 1.026818580000000e-01 -1.152731390000000e-02 -2.480852620000000e-01 -1.810533340000000e-01 1.451140050000000e-01 -2.849656350000000e-01
            1.457606380000000e-01 -2.849925970000000e-01 -2.480683340000000e-01 -1.810443930000000e-01 1.029073410000000e-01 -1.508605020000000e-02 1.003437290000000e-01 -9.400720580000001e-03
            -2.483513880000000e-01 -1.784183710000000e-01 1.451182580000000e-01 -2.849761330000000e-01 1.003371200000000e-01 -9.405613740000001e-03 1.009244250000000e-01 -1.107750510000000e-02
559034195.0000000000 9.584091190000001e-02 -1.615619060000000e-02 9.681980740000000e-02 -1.458572890000000e-02 7.556827950000000e-02 -3.106153310000000e-01 -2.835730370000000e-01 -1.168371770000000e-01
            9.681294770000000e-02 -1.458303960000000e-02 9.722896730000000e-02 -1.898045450000000e-02 -2.839127830000000e-01 -1.194910400000000e-01 7.494541890000000e-02 -3.104469800000000e-01
            7.557970280000000e-02 -3.106239780000000e-01 -2.839184500000000e-01 -1.194975570000000e-01 9.697194810000000e-02 -2.232748610000000e-02 9.422639860000000e-02 -1.688346880000000e-02
            -2.835697970000000e-01 -1.168401100000000e-01 7.494388300000000e-02 -3.104448020000000e-01 9.423420060000000e-02 -1.689188330000000e-02 9.500558060000000e-02 -1.831332870000000e-02
559533778.0000000000 8.768300990000000e-02 -2.032764710000000e-02 8.848634850000001e-02 -1.878816770000000e-02 1.057138440000000e-03 -3.192467150000000e-01 -3.041110860000000e-01 -4.860930290000000e-02
            8.849156790000000e-02 -1.878002650000000e-02 8.903976050000000e-02 -2.316669910000000e-02 -3.050460150000000e-01 -5.114290520000000e-02 5.165082820000000e-04 -3.189225490000000e-01
            1.082271920000000e-03 -3.192620390000000e-01 -3.050710440000000e-01 -5.113960300000000e-02 8.834177109999999e-02 -2.617640780000000e-02 8.532847380000000e-02 -2.086303000000000e-02
            -3.041051870000000e-01 -4.862543480000000e-02 5.065926020000000e-04 -3.189344640000000e-01 8.533824670000000e-02 -2.087004680000000e-02 8.640271700000000e-02 -2.213574910000000e-02
560033361.0000000000 7.854546120000000e-02 -2.038463010000000e-02 7.917366400000000e-02 -1.872508170000000e-02 -7.357559090000000e-02 -3.100442610000000e-01 -3.086697460000000e-01 2.302961290000000e-02
            7.917442540000000e-02 -1.872109400000000e-02 7.990835410000000e-02 -2.322074430000000e-02 -3.101940910000000e-01 2.079644780000000e-02 -7.404868550000000e-02 -3.095929450000000e-01
            -7.357126370000000e-02 -3.100516720000000e-01 -3.101842130000000e-01 2.080617490000000e-02 7.884076000000000e-02 -2.565141470000000e-02 7.548986870000000e-02 -2.046008360000000e-02
            -3.086803100000000e-01 2.301661430000000e-02 -7.404626180000000e-02 -3.096081930000000e-01 7.550998560000000e-02 -2.045219850000000e-02 7.689354560000000e-02 -2.163825300000000e-02
560532944.0000000000 7.047093100000000e-02 -1.628250580000000e-02 7.096199680000000e-02 -1.434276080000000e-02 -1.439070320000000e-01 -2.832783630000000e-01 -2.965815340000000e-01 9.453543470000000e-02
            7.094822140000000e-02 -1.434772230000000e-02 7.182266440000000e-02 -1.909075010000000e-02 -2.985552240000000e-01 9.270444820000000e-02 -1.442614950000000e-01 -2.827478430000000e-01
            -1.439026790000000e-01 -2.832947130000000e-01 -2.985512640000000e-01 9.270223150000000e-02 7.052228070000000e-02 -2.084379320000000e-02 6.683406070000000e-02 -1.561695090000000e-02
            -2.965593280000000e-01 9.451805490000000e-02 -1.442671290000000e-01 -2.827620050000000e-01 6.683413480000000e-02 -1.561240630000000e-02 6.860239830000001e-02 -1.684961240000000e-02
561032527.0000000000 6.526360840000001e-02 -8.981407300000001e-03 6.570326990000000e-02 -6.668812530000000e-03 -2.056227280000000e-01 -2.405568330000000e-01 -2.678420610000000e-01 1.619544920000000e-01
            6.570754420000000e-02 -6.661225680000000e-03 6.661201500000000e-02 -1.177791990000000e-02 -2.702012750000000e-01 1.606230340000000e-01 -2.058414760000000e-01 -2.399599410000000e-01
            -2.056109000000000e-01 -2.405769180000000e-01 -2.702042850000000e-01 1.606299500000000e-01 6.529807820000000e-02 -1.272110130000000e-02 6.125641390000000e-02 -7.351749780000000e-03
            -2.678183960000000e-01 1.619538180000000e-01 -2.058264980000000e-01 -2.399604160000000e-01 6.126217910000000e-02 -7.357395410000000e-03 6.337075709999999e-02 -8.770143629999999e-03
561532110.0000000000 6.409835940000000e-02 -1.996367590000000e-04 6.466723210000000e-02 2.554642670000000e-03 -2.550104600000000e-01 -1.846588320000000e-01 -2.235387340000000e-01 2.212411660000000e-01
            6.467765550000000e-02 2.541469640000000e-03 6.545523720000000e-02 -2.970116940000000e-03 -2.261877530000000e-01 2.205036710000000e-01 -2.550753080000000e-01 -1.840075320000000e-01
            -2.550020200000000e-01 -1.846479030000000e-01 -2.261920880000000e-01 2.205112760000000e-01 6.436894130000000e-02 -3.105249490000000e-03 6.000473840000000e-02 2.492872840000000e-03
            -2.235597100000000e-01 2.212359230000000e-01 -2.550692230000000e-01 -1.840134600000000e-01 6.001547080000000e-02 2.502033430000000e-03 6.244465280000000e-02 8.492350730000000e-04
562031693.0000000000 6.720440200000000e-02 7.986269040000001e-03 6.808158690000000e-02 1.115475470000000e-02 -2.893710170000000e-01 -1.191790900000000e-01 -1.660177190000000e-01 2.685573680000000e-01
            6.809024510000000e-02 1.117245070000000e-02 6.854854130000000e-02 5.202926750000000e-03 -1.687630740000000e-01 2.684626600000000e-01 -2.892898770000000e-01 -1.185575890000000e-01
            -2.893703650000000e-01 -1.191692610000000e-01 -1.687668070000000e-01 2.684712290000000e-01 6.792625280000000e-02 5.838275740000000e-03 6.334318070000000e-02 1.175517720000000e-02
            -1.660064780000000e-01 2.685706510000000e-01 -2.892769690000000e-01 -1.185578620000000e-01 6.332164810000000e-02 1.176722610000000e-02 6.599168540000000e-02 9.769587289999999e-03
562531276.0000000000 7.369066710000000e-02 1.363112660000000e-02 7.510999860000001e-02 1.715760170000000e-02 -3.071980560000000e-01 -4.826067000000000e-02 -9.856147760000000e-02 3.008316730000000e-01
            7.509294240000000e-02 1.716323670000000e-02 7.506929179999999e-02 1.087478590000000e-02 -1.012744700000000e-01 3.013846870000000e-01 -3.069739030000000e-01 -4.767379520000000e-02
            -3.072003630000000e-01 -4.824333050000000e-02 -1.012578470000000e-01 3.013898240000000e-01 7.515613080000000e-02 1.211761940000000e-02 7.036660150000000e-02 1.840801200000000e-02
            -9.856433130000000e-02 3.008391220000000e-01 -3.069670360000000e-01 -4.767301420000000e-02 7.036776700000000e-02 1.841580330000000e-02 7.318363220000000e-02 1.601757480000000e-02
563030859.0000000000 8.202790840000000e-02 1.548475890000000e-02 8.407557290000001e-02 1.919573750000000e-02 -3.081347100000000e-01 2.406209380000000e-02 -2.536119720000000e-02 3.160740950000000e-01
            8.408002100000000e-02 1.920497140000000e-02 8.340487360000000e-02 1.273874020000000e-02 -2.783501150000000e-02 3.172265220000000e-01 -3.077747890000000e-01 2.457931120000000e-02
            -3.081402490000000e-01 2.407055600000000e-02 -2.785030460000000e-02 3.172349990000000e-01 8.434836129999999e-02 1.437695370000000e-02 7.945940620000000e-02 2.109131350000000e-02
            -2.534205120000000e-02 3.160742450000000e-01 -3.077719850000000e-01 2.457364880000000e-02 7.947085090000000e-02 2.108198790000000e-02 8.233346280000001e-02 1.826775290000000e-02
563530442.0000000000 9.016627300000001e-02 1.319181870000000e-02 9.296046560000000e-02 1.685798380000000e-02 -2.926690030000000e-01 9.399651470000001e-02 4.920619780000000e-02 3.135201360000000e-01
            9.296654240000000e-02 1.686060390000000e-02 9.157522960000000e-02 1.043891020000000e-02 4.704398050000000e-02 3.152467690000000e-01 -2.921973000000000e-01 9.442186590000000e-02
            -2.926624650000000e-01 9.400288810000000e-02 4.704365230000000e-02 3.152423660000000e-01 9.343921880000000e-02 1.221898860000000e-02 8.856821519999999e-02 1.938723390000000e-02
            4.921658080000000e-02 3.135194480000000e-01 -2.922156330000000e-01 9.443361270000000e-02 8.855966340000000e-02 1.939923260000000e-02 9.142288770000000e-02 1.610966160000000e-02
564030025.0000000000 9.624775770000001e-02 7.335510520000000e-03 9.978676559999999e-02 1.070762960000000e-02 -2.620070540000000e-01 1.581915450000000e-01 1.208312970000000e-01 2.936612750000000e-01
            9.979021770000000e-02 1.072741720000000e-02 9.767506430000000e-02 4.579982540000000e-03 1.191129300000000e-01 2.958533950000000e-01 -2.614543910000000e-01 1.584978660000000e-01
            -2.620055560000000e-01 1.581917150000000e-01 1.191086240000000e-01 2.958614600000000e-01 1.004762770000000e-01 6.231035500000000e-03 9.572106000000000e-02 1.385342370000000e-02
            1.208169470000000e-01 2.936648170000000e-01 -2.614554640000000e-01 1.584894970000000e-01 9.572784900000000e-02 1.385390050000000e-02 9.844464220000000e-02 1.015353040000000e-02
564529608.0000000000 9.891562000000000e-02 -7.174547030000000e-04 1.030931980000000e-01 2.134117430000000e-03 -2.177695320000000e-01 2.136060970000000e-01 1.856808760000000e-01 2.579622070000000e-01
            1.030931020000000e-01 2.138163280000000e-03 1.003345620000000e-01 -3.496871060000000e-03 1.845342900000000e-01 2.604805130000000e-01 -2.171821790000000e-01 2.137893730000000e-01
            -2.177764180000000e-01 2.136170070000000e-01 1.845300420000000e-01 2.604902840000000e-01 1.040218110000000e-01 -2.208161870000000e-03 9.942333750000000e-02 5.826477730000000e-03
            1.856766370000000e-01 2.579586130000000e-01 -2.171715800000000e-01 2.137783990000000e-01 9.941004950000000e-02 5.830705020000000e-03 1.019495520000000e-01 1.713464040000000e-03
565029191.0000000000 9.749916370000000e-02 -9.196508379999999e-03 1.021394160000000e-01 -7.047493640000000e-03 -1.621737750000000e-01 2.575424330000000e-01 2.405609510000000e-01 2.085206940000000e-01
            1.021546090000000e-01 -7.034947060000000e-03 9.895121880000000e-02 -1.200197770000000e-02 2.400368010000000e-01 2.112348070000000e-01 -1.615335910000000e-01 2.575716570000000e-01
            -1.621658590000000e-01 2.575436010000000e-01 2.400265130000000e-01 2.112439630000000e-01 1.033525460000000e-01 -1.130494970000000e-02 9.902960120000000e-02 -2.852439840000000e-03
            2.405658700000000e-01 2.085211350000000e-01 -1.615394110000000e-01 2.575638050000000e-01 9.904639360000000e-02 -2.885713370000000e-03 1.012822220000000e-01 -7.353956220000000e-03
565528774.0000000000 9.226621240000001e-02 -1.620296690000000e-02 9.714957350000000e-02 -1.485408630000000e-02 -9.779458810000000e-02 2.876191340000000e-01 2.828483520000000e-01 1.478876250000000e-01
            9.714437710000000e-02 -1.487536950000000e-02 9.369835650000000e-02 -1.900669750000000e-02 2.829565390000000e-01 1.506776450000000e-01 -9.718222610000000e-02 2.875081770000000e-01
            -9.779946289999999e-02 2.876122760000000e-01 2.829532330000000e-01 1.506666810000000e-01 9.862428819999999e-02 -1.907085040000000e-02 9.466017400000000e-02 -1.026855540000000e-02
            2.828583100000000e-01 1.478878950000000e-01 -9.720441010000000e-02 2.875072990000000e-01 9.466585520000000e-02 -1.027740080000000e-02 9.657550460000000e-02 -1.510450960000000e-02
566028357.0000000000 8.425585540000000e-02 -2.011045740000000e-02 8.911131540000000e-02 -1.961776800000000e-02 -2.800294120000000e-02 3.019725330000000e-01 3.104687710000000e-01 7.901208120000000e-02
            8.909968330000000e-02 -1.961432570000000e-02 8.567841570000000e-02 -2.289712040000000e-02 3.112141670000000e-01 8.170987790000001e-02 -2.744220230000000e-02 3.017221010000000e-01
            -2.800811380000000e-02 3.019793140000000e-01 3.112137920000000e-01 8.171133980000000e-02 9.088900749999999e-02 -2.384534010000000e-02 8.734014370000000e-02 -1.475421830000000e-02
            3.104553900000000e-01 7.902369740000000e-02 -2.745037480000000e-02 3.017035850000000e-01 8.733042780000000e-02 -1.475544880000000e-02 8.884017150000000e-02 -1.985933010000000e-02
566527940.0000000000 7.514833379999999e-02 -1.992082650000000e-02 7.973412520000001e-02 -2.022760200000000e-02 4.338163740000000e-02 2.994644620000000e-01 3.217810710000000e-01 5.161262300000000e-03
            7.971752670000000e-02 -2.022464220000000e-02 7.654896920000000e-02 -2.271250310000000e-02 3.231347360000000e-01 7.643507450000000e-03 4.385288960000000e-02 2.990752130000000e-01
            4.337998310000000e-02 2.994492980000000e-01 3.231231580000000e-01 7.630842020000000e-03 8.180572530000001e-02 -2.454236470000000e-02 7.872528610000000e-02 -1.524424880000000e-02
            3.217894890000000e-01 5.179995390000000e-03 4.386027510000000e-02 2.990618350000000e-01 7.872401230000001e-02 -1.523234260000000e-02 7.977262260000000e-02 -2.056758220000000e-02
567027523.0000000000 6.695211900000000e-02 -1.551778980000000e-02 7.105108990000000e-02 -1.647965120000000e-02 1.121347740000000e-01 2.799895380000000e-01 3.157770550000000e-01 -6.997996970000001e-02
            7.105886430000000e-02 -1.646492260000000e-02 6.834264570000000e-02 -1.832068030000000e-02 3.176804420000000e-01 -6.789857530000000e-02 1.125132420000000e-01 2.795160310000000e-01
            1.121352560000000e-01 2.800015320000000e-01 3.176834520000000e-01 -6.789173310000000e-02 7.338023260000000e-02 -2.094793250000000e-02 7.082129830000000e-02 -1.153696860000000e-02
            3.157871050000000e-01 -6.997826750000000e-02 1.125114080000000e-01 2.795121800000000e-01 7.083870140000000e-02 -1.153794790000000e-02 7.136012310000001e-02 -1.698208080000000e-02
567527106.0000000000 6.155173750000000e-02 -7.772897270000000e-03 6.505089159999999e-02 -9.130179969999999e-03 1.740462590000000e-01 2.447099580000000e-01 2.922394350000000e-01 -1.423601640000000e-01
            6.507835880000000e-02 -9.134233259999999e-03 6.292657679999999e-02 -1.052410910000000e-02 2.945745900000000e-01 -1.407714850000000e-01 1.743174510000000e-01 2.441544310000000e-01
            1.740486180000000e-01 2.447034690000000e-01 2.945743390000000e-01 -1.407686480000000e-01 6.756117600000000e-02 -1.386538430000000e-02 6.554596390000000e-02 -4.438954310000000e-03
            2.922328130000000e-01 -1.423752190000000e-01 1.742966600000000e-01 2.441527830000000e-01 6.554459940000000e-02 -4.452313120000000e-03 6.556860790000001e-02 -9.918584530000000e-03
568026689.0000000000 6.026108150000000e-02 1.731988340000000e-03 6.309992670000000e-02 1.150348560000000e-04 2.253689030000000e-01 1.959113450000000e-01 2.518946740000000e-01 -2.077377260000000e-01
            6.311856010000000e-02 1.184711180000000e-04 6.164314270000000e-02 -1.013903110000000e-03 2.545702160000000e-01 -2.067270610000000e-01 2.254760880000000e-01 1.953237740000000e-01
            2.253761600000000e-01 1.959255420000000e-01 2.545630320000000e-01 -2.067237810000000e-01 6.570212770000000e-02 -4.876065370000000e-03 6.422285160000001e-02 4.427088980000000e-03
            2.519024740000000e-01 -2.077168970000000e-01 2.254880630000000e-01 1.953134270000000e-01 6.422011390000000e-02 4.437174240000000e-03 6.370729650000000e-02 -9.516414690000000e-04
568526272.0000000000 6.341767140000000e-02 1.083375460000000e-02 6.567506700000000e-02 9.179802839999999e-03 2.632331640000000e-01 1.368759670000000e-01 1.968276050000000e-01 -2.619391750000000e-01
            6.568162480000000e-02 9.177521900000001e-03 6.482206390000000e-02 8.098415320000000e-03 1.996478240000000e-01 -2.615742410000000e-01 2.631905560000000e-01 1.362838770000000e-01
            2.632294040000000e-01 1.368884030000000e-01 1.996520790000000e-01 -2.615981730000000e-01 6.823670270000000e-02 3.930009170000000e-03 6.722961680000000e-02 1.301802980000000e-02
            1.968082510000000e-01 -2.619405150000000e-01 2.632065140000000e-01 1.362855140000000e-01 6.724068969999999e-02 1.300877860000000e-02 6.622552080000001e-02 7.826868250000001e-03
569025855.0000000000 7.037547390000000e-02 1.750758650000000e-02 7.208610800000000e-02 1.598580210000000e-02 2.858782470000000e-01 7.135666350000000e-02 1.301294380000000e-01 -3.015320260000000e-01
            7.208238960000000e-02 1.597682660000000e-02 7.178786610000000e-02 1.479434550000000e-02 1.329801260000000e-01 -3.018485970000000e-01 2.857278820000000e-01 7.079516780000000e-02
            2.858989910000000e-01 7.137663890000000e-02 1.329769110000000e-01 -3.018489510000000e-01 7.452617870000000e-02 1.052829220000000e-02 7.395684110000000e-02 1.930081480000000e-02
            1.301311100000000e-01 -3.015296180000000e-01 2.857355160000000e-01 7.079403030000000e-02 7.395671840000000e-02 1.928246630000000e-02 7.248961010000000e-02 1.441527000000000e-02
569525438.0000000000 7.951935950000000e-02 2.031706010000000e-02 8.084807610000000e-02 1.902328480000000e-02 2.926849280000000e-01 3.197485150000000e-03 5.591885820000000e-02 -3.240481850000000e-01
            8.086294800000000e-02 1.902084340000000e-02 8.096155620000001e-02 1.761032890000000e-02 5.863497920000000e-02 -3.250376190000000e-01 2.924080180000000e-01 2.687467500000000e-03
            2.926820670000000e-01 3.192515440000000e-03 5.861111480000000e-02 -3.250265000000000e-01 8.310651940000000e-02 1.346710460000000e-02 8.286839550000000e-02 2.180411480000000e-02
            5.591926890000000e-02 -3.240476180000000e-01 2.924062170000000e-01 2.680716710000000e-03 8.286325800000000e-02 2.179864020000000e-02 8.104409450000000e-02 1.733926380000000e-02
570025021.0000000000 8.891029270000000e-02 1.874152490000000e-02 8.996812240000000e-02 1.769232370000000e-02 2.838543960000000e-01 -6.400524520000000e-02 -2.130779940000000e-02 -3.283466130000000e-01
            8.995810220000000e-02 1.769783650000000e-02 9.035962110000000e-02 1.602437430000000e-02 -1.888488050000000e-02 -3.299206530000000e-01 2.834383870000000e-01 -6.444900550000000e-02
            2.838492790000000e-01 -6.399903020000000e-02 -1.889453680000000e-02 -3.298943040000000e-01 9.203136870000000e-02 1.214630420000000e-02 9.197605189999999e-02 2.002485040000000e-02
            -2.130070340000000e-02 -3.283348610000000e-01 2.834684350000000e-01 -6.443707490000000e-02 9.196137690000000e-02 2.002692990000000e-02 8.993041280000000e-02 1.601161720000000e-02
570524604.0000000000 9.648092649999999e-02 1.317702960000000e-02 9.740858240000000e-02 1.237330820000000e-02 2.602487270000000e-01 -1.269976200000000e-01 -9.708472830000001e-02 -3.144621150000000e-01
            9.741239459999999e-02 1.234828360000000e-02 9.797155180000000e-02 1.045591940000000e-02 -9.511236610000000e-02 -3.165696060000000e-01 2.597649980000000e-01 -1.273392460000000e-01
            2.602469110000000e-01 -1.270138910000000e-01 -9.511059740000000e-02 -3.165796170000000e-01 9.933143179999999e-02 6.927586420000000e-03 9.931932850000000e-02 1.435770370000000e-02
            -9.708144470000001e-02 -3.144702690000000e-01 2.597543360000000e-01 -1.273334050000000e-01 9.930265780000000e-02 1.435074540000000e-02 9.720005170000000e-02 1.080932950000000e-02
571024187.0000000000 1.007235370000000e-01 4.885107370000000e-03 1.016109820000000e-01 4.237886130000000e-03 2.232158920000000e-01 -1.828492660000000e-01 -1.673100660000000e-01 -2.836241840000000e-01
            1.016126790000000e-01 4.244971850000000e-03 1.022220740000000e-01 2.150112540000000e-03 -1.658967420000000e-01 -2.861091620000000e-01 2.226692320000000e-01 -1.830477650000000e-01
            2.232089410000000e-01 -1.828561480000000e-01 -1.659018620000000e-01 -2.861009140000000e-01 1.034773330000000e-01 -9.972056790000000e-04 1.033594100000000e-01 6.010848090000000e-03
            -1.673225500000000e-01 -2.836025930000000e-01 2.226624850000000e-01 -1.830449920000000e-01 1.033677870000000e-01 5.998262680000000e-03 1.013246550000000e-01 2.907376280000000e-03
571523770.0000000000 1.008122790000000e-01 -4.358060240000000e-03 1.016682020000000e-01 -4.928868460000000e-03 1.745440030000000e-01 -2.288284220000000e-01 -2.284944810000000e-01 -2.376506610000000e-01
            1.016683850000000e-01 -4.933562060000000e-03 1.023169810000000e-01 -7.104566820000000e-03 -2.276867420000000e-01 -2.403934970000000e-01 1.739533190000000e-01 -2.289068330000000e-01
            1.745375290000000e-01 -2.288399680000000e-01 -2.276797130000000e-01 -2.404044720000000e-01 1.035827960000000e-01 -9.913634960000001e-03 1.032852800000000e-01 -3.270397200000000e-03
            -2.284921260000000e-01 -2.376430030000000e-01 1.739721140000000e-01 -2.288881910000000e-01 1.032806560000000e-01 -3.266672930000000e-03 1.014576650000000e-01 -5.998476000000000e-03
572023353.0000000000 9.674605290000000e-02 -1.260728360000000e-02 9.755869659999999e-02 -1.319028920000000e-02 1.165224720000000e-01 -2.625553500000000e-01 -2.776704410000000e-01 -1.790352720000000e-01
            9.754999640000001e-02 -1.318157910000000e-02 9.823992820000001e-02 -1.537165590000000e-02 -2.775064370000000e-01 -1.819137930000000e-01 1.159440350000000e-01 -2.625011550000000e-01
            1.165251070000000e-01 -2.625502970000000e-01 -2.775220840000000e-01 -1.819067710000000e-01 9.968500880000000e-02 -1.793183020000000e-02 9.908848800000000e-02 -1.151642450000000e-02
            -2.776560080000000e-01 -1.790268130000000e-01 1.159339750000000e-01 -2.624955500000000e-01 9.909327560000000e-02 -1.151712080000000e-02 9.754416660000000e-02 -1.401661290000000e-02
572522936.0000000000 8.940362340000001e-02 -1.810313430000000e-02 9.009223370000000e-02 -1.875729720000000e-02 5.204607570000000e-02 -2.819784650000000e-01 -3.124330540000000e-01 -1.106177660000000e-01
            9.009526440000000e-02 -1.875665760000000e-02 9.087722910000000e-02 -2.088495970000000e-02 -3.129448170000000e-01 -1.134776310000000e-01 5.149668310000000e-02 -2.817764820000000e-01
            5.204674410000000e-02 -2.819808930000000e-01 -3.129437080000000e-01 -1.134773690000000e-01 9.256602429999999e-02 -2.337465380000000e-02 9.164263139999999e-02 -1.701478010000000e-02
            -3.124213370000000e-01 -1.106214370000000e-01 5.150331970000000e-02 -2.817862880000000e-01 9.163021370000000e-02 -1.700178030000000e-02 9.042899209999999e-02 -1.942260570000000e-02
573022519.0000000000 8.032974310000000e-02 -1.967711030000000e-02 8.083248429999999e-02 -2.038590500000000e-02 -1.538006040000000e-02 -2.856864060000000e-01 -3.308745090000000e-01 -3.565530500000000e-02
            8.082525240000001e-02 -2.038306640000000e-02 8.180887370000001e-02 -2.243129250000000e-02 -3.320355800000000e-01 -3.832544280000000e-02 -1.588490800000000e-02 -2.853673580000000e-01
            -1.539109130000000e-02 -2.856701960000000e-01 -3.320500180000000e-01 -3.832508710000000e-02 8.374882190000001e-02 -2.499506820000000e-02 8.250614990000001e-02 -1.854497110000000e-02
            -3.308886140000000e-01 -3.565263940000000e-02 -1.587690580000000e-02 -2.853708550000000e-01 8.250496310000000e-02 -1.854858910000000e-02 8.163620440000000e-02 -2.106100480000000e-02
573522102.0000000000 7.154842490000000e-02 -1.687908870000000e-02 7.175330510000000e-02 -1.763429720000000e-02 -8.181684320000000e-02 -2.732119450000000e-01 -3.316766660000000e-01 4.216895510000000e-02
            7.175009680000000e-02 -1.763184550000000e-02 7.302464340000001e-02 -1.965795780000000e-02 -3.334351310000000e-01 3.984046510000000e-02 -8.222457250000000e-02 -2.728019710000000e-01
            -8.182976840000000e-02 -2.732160650000000e-01 -3.334433920000000e-01 3.983754720000000e-02 7.514743530000000e-02 -2.240448980000000e-02 7.368393370000000e-02 -1.574306430000000e-02
            -3.316736060000000e-01 4.218101360000000e-02 -8.222439270000000e-02 -2.727848400000000e-01 7.368403040000000e-02 -1.575019810000000e-02 7.303390830000001e-02 -1.848881190000000e-02
574021685.0000000000 6.503253890000001e-02 -1.033669380000000e-02 6.485871529999999e-02 -1.103096000000000e-02 -1.432018220000000e-01 -2.452051060000000e-01 -3.142349250000000e-01 1.187681340000000e-01
            6.487474980000001e-02 -1.104769160000000e-02 6.648426820000000e-02 -1.310207950000000e-02 -3.165056540000000e-01 1.169052560000000e-01 -1.434893930000000e-01 -2.446861950000000e-01
            -1.431884920000000e-01 -2.451935800000000e-01 -3.164921360000000e-01 1.168962000000000e-01 6.869575900000000e-02 -1.620366050000000e-02 6.713238890000001e-02 -9.201743510000001e-03
            -3.142400700000000e-01 1.187714250000000e-01 -1.434843290000000e-01 -2.447011510000000e-01 6.712891479999999e-02 -9.207465810000001e-03 6.661219210000000e-02 -1.229502280000000e-02
574521268.0000000000 6.228894030000000e-02 -1.498177250000000e-03 6.170727160000000e-02 -2.049933960000000e-03 -1.957068530000000e-01 -2.035069550000000e-01 -2.789601070000000e-01 1.897465430000000e-01
            6.170800200000000e-02 -2.051298920000000e-03 6.373982760000001e-02 -4.241066850000000e-03 -2.816180070000000e-01 1.884383850000000e-01 -1.958657040000000e-01 -2.029490420000000e-01
            -1.957044430000000e-01 -2.034982610000000e-01 -2.816142740000000e-01 1.884339510000000e-01 6.586900380000001e-02 -7.775555190000000e-03 6.435175780000001e-02 -3.694107140000000e-04
            -2.789787320000000e-01 1.897473360000000e-01 -1.958612460000000e-01 -2.029560610000000e-01 6.435797430000000e-02 -3.770522460000000e-04 6.378671100000000e-02 -3.852226330000000e-03
575020851.0000000000 6.394451010000000e-02 7.605947510000000e-03 6.297038589999999e-02 7.337187880000000e-03 -2.363538040000000e-01 -1.509814680000000e-01 -2.275064640000000e-01 2.507007680000000e-01
            6.297077020000000e-02 7.328679290000000e-03 6.540604060000001e-02 4.890080140000000e-03 -2.303997870000000e-01 2.500532070000000e-01 -2.363891370000000e-01 -1.504002910000000e-01
            -2.363568820000000e-01 -1.509565830000000e-01 -2.304141490000000e-01 2.500599420000000e-01 6.730148170000000e-02 9.127601680000000e-04 6.598872570000000e-02 8.690763549999999e-03
            -2.275204420000000e-01 2.507015240000000e-01 -2.363712310000000e-01 -1.504057310000000e-01 6.599977360000001e-02 8.683644230000001e-03 6.520167310000000e-02 4.793977700000000e-03
575520434.0000000000 6.963246050000001e-02 1.486835390000000e-02 6.829846790000001e-02 1.502351140000000e-02 -2.631366190000000e-01 -9.103160730000000e-02 -1.627523850000000e-01 2.977630990000000e-01
            6.831596280000000e-02 1.503070570000000e-02 7.110335020000000e-02 1.218743960000000e-02 -1.657068760000000e-01 2.978377890000000e-01 -2.630168810000000e-01 -9.046499230000001e-02
            -2.631401500000000e-01 -9.104591870000001e-02 -1.657197230000000e-01 2.978337550000000e-01 7.253610580000000e-02 7.849479570000000e-03 7.162341930000000e-02 1.594443470000000e-02
            -1.627483090000000e-01 2.977774500000000e-01 -2.630355560000000e-01 -9.046856820000000e-02 7.162684229999999e-02 1.594269810000000e-02 7.042659499999999e-02 1.170523780000000e-02
576020017.0000000000 7.798025920000000e-02 1.869476460000000e-02 7.640120490000001e-02 1.936482640000000e-02 -2.751008290000000e-01 -2.732004800000000e-02 -8.856994100000000e-02 3.280586360000000e-01
            7.639361920000000e-02 1.937273280000000e-02 7.947945230000000e-02 1.600528710000000e-02 -9.144987880000000e-02 3.288295960000000e-01 -2.748717240000000e-01 -2.679409940000000e-02
            -2.751043980000000e-01 -2.731384920000000e-02 -9.146288220000000e-02 3.288238860000000e-01 8.032229560000000e-02 1.145092130000000e-02 7.993824590000000e-02 1.975542480000000e-02
            -8.857173230000000e-02 3.280714020000000e-01 -2.748827290000000e-01 -2.679857860000000e-02 7.993593290000001e-02 1.973689770000000e-02 7.818188190000000e-02 1.530040110000000e-02
576519600.0000000000 8.711363680000000e-02 1.824382780000000e-02 8.539512900000000e-02 1.953233490000000e-02 -2.722078650000000e-01 3.672437560000000e-02 -9.497610800000000e-03 3.399062000000000e-01
            8.539987020000001e-02 1.952834160000000e-02 8.862210580000000e-02 1.556999770000000e-02 -1.212077600000000e-02 3.412889530000000e-01 -2.718577380000000e-01 3.716800420000000e-02
            -2.722028800000000e-01 3.671539160000000e-02 -1.211823840000000e-02 3.413090190000000e-01 8.878078380000000e-02 1.098589490000000e-02 8.898375579999999e-02 1.930815740000000e-02
            -9.504829310000001e-03 3.399010150000000e-01 -2.718676030000000e-01 3.717031230000000e-02 8.899445920000000e-02 1.930120500000000e-02 8.661954940000000e-02 1.483136710000000e-02
577019183.0000000000 9.496612259999999e-02 1.374875510000000e-02 9.327091440000000e-02 1.564428240000000e-02 -2.550341040000000e-01 9.790231269999999e-02 6.986836580000000e-02 3.328708180000000e-01
            9.327840570000000e-02 1.564912580000000e-02 9.650320890000000e-02 1.105486100000000e-02 6.763848080000000e-02 3.348482710000000e-01 -2.546029050000000e-01 9.825114410000001e-02
            -2.550406470000000e-01 9.790476490000000e-02 6.763892959999999e-02 3.348661790000000e-01 9.593923430000000e-02 6.635563050000000e-03 9.679408630000000e-02 1.480075090000000e-02
            6.985812580000000e-02 3.328750700000000e-01 -2.546111440000000e-01 9.824566520000000e-02 9.680716339999999e-02 1.479950430000000e-02 9.375680120000000e-02 1.048038480000000e-02
577518766.0000000000 9.990018460000000e-02 6.200508110000000e-03 9.840136110000000e-02 8.705525449999999e-03 -2.246672590000000e-01 1.533768430000000e-01 1.451511640000000e-01 3.077640230000000e-01
            9.838464330000000e-02 8.712329560000001e-03 1.014511010000000e-01 3.495103580000000e-03 1.434413930000000e-01 3.101971190000000e-01 -2.241693170000000e-01 1.535918850000000e-01
            -2.246759550000000e-01 1.533627130000000e-01 1.434498500000000e-01 3.102023010000000e-01 1.002295540000000e-01 -5.442019490000000e-04 1.016900230000000e-01 7.285589040000000e-03
            1.451434140000000e-01 3.077679720000000e-01 -2.241746940000000e-01 1.536073870000000e-01 1.016947950000000e-01 7.274852060000000e-03 9.803292000000000e-02 3.311644280000000e-03
578018349.0000000000 1.008786070000000e-01 -2.720302360000000e-03 9.967514500000001e-02 3.455838400000000e-04 -1.826319610000000e-01 2.004617340000000e-01 2.125071290000000e-01 2.662006510000000e-01
            9.967706599999999e-02 3.550106680000000e-04 1.024368380000000e-01 -5.460289590000000e-03 2.114143360000000e-01 2.689496890000000e-01 -1.820773250000000e-01 2.005717280000000e-01
            -1.826242160000000e-01 2.004406280000000e-01 2.113894950000000e-01 2.689600850000000e-01 1.006601590000000e-01 -8.919370940000001e-03 1.026581010000000e-01 -1.605883140000000e-03
            2.125138670000000e-01 2.661995380000000e-01 -1.821002800000000e-01 2.005796860000000e-01 1.026577040000000e-01 -1.600154440000000e-03 9.843581570000000e-02 -5.058569930000000e-03
578517932.0000000000 9.775195850000000e-02 -1.113664410000000e-02 9.693372130000000e-02 -7.559594480000000e-03 -1.308727020000000e-01 2.367500990000000e-01 2.686474980000000e-01 2.104414800000000e-01
            9.695048090000000e-02 -7.556959500000000e-03 9.931725880000000e-02 -1.386807990000000e-02 2.682097360000000e-01 2.133794510000000e-01 -1.303085390000000e-01 2.367382570000000e-01
            -1.308727640000000e-01 2.367623260000000e-01 2.682209320000000e-01 2.133771280000000e-01 9.711106200000000e-02 -1.664060760000000e-02 9.948763650000000e-02 -9.943586930000000e-03
            2.686488040000000e-01 2.104402260000000e-01 -1.303141900000000e-01 2.367308150000000e-01 9.947453370000001e-02 -9.949949939999999e-03 9.488961800000000e-02 -1.276472170000000e-02
579017515.0000000000 9.112959960000000e-02 -1.720615370000000e-02 9.082160240000001e-02 -1.324564410000000e-02 -7.194207330000001e-02 2.601512620000000e-01 3.107947540000000e-01 1.432381390000000e-01
            9.083296489999999e-02 -1.323854720000000e-02 9.268539260000000e-02 -1.995067120000000e-02 3.110508010000000e-01 1.462290970000000e-01 -7.140775660000000e-02 2.600073450000000e-01
            -7.194525810000001e-02 2.601367770000000e-01 3.110547200000000e-01 1.462285730000000e-01 9.025121220000000e-02 -2.191920040000000e-02 9.285743320000001e-02 -1.596823920000000e-02
            3.107913260000000e-01 1.432347180000000e-01 -7.141326400000000e-02 2.600047550000000e-01 9.285266210000000e-02 -1.595297230000000e-02 8.805180490000000e-02 -1.802747500000000e-02
579517098.0000000000 8.245358460000000e-02 -1.960526210000000e-02 8.271470039999999e-02 -1.535713250000000e-02 -8.985719280000000e-03 2.690342510000000e-01 3.367101520000000e-01 6.783193190000000e-02
            8.270871200000000e-02 -1.536066820000000e-02 8.397722830000000e-02 -2.233824930000000e-02 3.376609710000000e-01 7.066663330000000e-02 -8.508952970000001e-03 2.687816870000000e-01
            -8.990653240000000e-03 2.690414750000000e-01 3.376538830000000e-01 7.067465760000000e-02 8.155047700000000e-02 -2.351394150000000e-02 8.419134370000000e-02 -1.829815050000000e-02
            3.367069810000000e-01 6.783069780000001e-02 -8.511731430000001e-03 2.687906830000000e-01 8.419582840000001e-02 -1.829435600000000e-02 7.935167460000001e-02 -1.959722420000000e-02
580016681.0000000000 7.359316300000000e-02 -1.776065550000000e-02 7.444546489999999e-02 -1.335959300000000e-02 5.430867740000000e-02 2.626679040000000e-01 3.447024580000000e-01 -1.212028170000000e-02
            7.445757230000000e-02 -1.334269810000000e-02 7.513177540000000e-02 -2.048778720000000e-02 3.462942020000000e-01 -9.572603880000001e-03 5.470899610000000e-02 2.623013990000000e-01
            5.429560090000000e-02 2.626619040000000e-01 3.462940560000000e-01 -9.572615090000000e-03 7.288683270000000e-02 -2.086301450000000e-02 7.542164340000000e-02 -1.638097160000000e-02
            3.446999890000000e-01 -1.211839410000000e-02 5.472459180000000e-02 2.622964020000000e-01 7.541023750000000e-02 -1.637439030000000e-02 7.072749950000000e-02 -1.696455960000000e-02
580516264.0000000000 6.658210650000000e-02 -1.201158280000000e-02 6.804367920000000e-02 -7.550896370000000e-03 1.140568700000000e-01 2.413259900000000e-01 3.338391570000000e-01 -9.240388939999999e-02
            6.804255240000000e-02 -7.564047510000000e-03 6.809377379999999e-02 -1.474372590000000e-02 3.359895850000000e-01 -9.028648330000000e-02 1.143758580000000e-01 2.408849600000000e-01
            1.140664800000000e-01 2.413351930000000e-01 3.359816680000000e-01 -9.029192540000000e-02 6.624745800000000e-02 -1.441918750000000e-02 6.848931599999999e-02 -1.059710760000000e-02
            3.338337060000000e-01 -9.242555860000000e-02 1.143658010000000e-01 2.408676610000000e-01 6.850487340000000e-02 -1.059611800000000e-02 6.408182170000000e-02 -1.053811560000000e-02
581015847.0000000000 6.302132040000000e-02 -3.660244050000000e-03 6.508473660000000e-02 7.248782640000000e-04 1.665872090000000e-01 2.064364860000000e-01 3.041674290000000e-01 -1.685297690000000e-01
            6.507709380000000e-02 7.218279030000001e-04 6.452525470000001e-02 -6.373397210000000e-03 3.067709720000000e-01 -1.669580880000000e-01 1.667867580000000e-01 2.059390520000000e-01
            1.665903070000000e-01 2.064301110000000e-01 3.067608370000000e-01 -1.669444500000000e-01 6.321410850000000e-02 -5.460674340000000e-03 6.504533770000000e-02 -2.251607500000000e-03
            3.041757460000000e-01 -1.685416850000000e-01 1.667792750000000e-01 2.059305490000000e-01 6.503760870000000e-02 -2.233275600000000e-03 6.106375180000000e-02 -1.623244950000000e-03
581515430.0000000000 6.372414730000001e-02 5.362204460000000e-03 6.635394579999999e-02 9.568488429999999e-03 2.088085870000000e-01 1.604716770000000e-01 2.569904250000000e-01 -2.358408660000000e-01
            6.637091710000000e-02 9.575524300000001e-03 6.524214750000000e-02 2.676441740000000e-03 2.599233310000000e-01 -2.349128940000000e-01 2.088869180000000e-01 1.599271580000000e-01
            2.088158320000000e-01 1.604538980000000e-01 2.599254810000000e-01 -2.349010240000000e-01 6.457995840000000e-02 3.981172570000000e-03 6.588933130000001e-02 6.757836010000000e-03
            2.570085780000000e-01 -2.358482630000000e-01 2.088768600000000e-01 1.599356340000000e-01 6.590552700000001e-02 6.763938610000000e-03 6.240735050000000e-02 7.804590690000000e-03
582015013.0000000000 6.853854600000001e-02 1.302782410000000e-02 7.168584950000000e-02 1.693279570000000e-02 2.385959260000000e-01 1.065003460000000e-01 1.949359680000000e-01 -2.901306740000000e-01
            7.168923560000000e-02 1.694039420000000e-02 7.007017800000000e-02 1.035746780000000e-02 1.979890780000000e-01 -2.898995150000000e-01 2.385420090000000e-01 1.059649900000000e-01
            2.385911160000000e-01 1.064855940000000e-01 1.979740920000000e-01 -2.898896530000000e-01 7.007123329999999e-02 1.185623670000000e-02 7.083447040000000e-02 1.430525740000000e-02
            1.949296660000000e-01 -2.901294220000000e-01 2.385323300000000e-01 1.059486230000000e-01 7.083792730000001e-02 1.431227930000000e-02 6.787878940000000e-02 1.565598460000000e-02
582514595.0000000000 7.629952540000000e-02 1.756030450000000e-02 7.987957900000001e-02 2.109165880000000e-02 2.547878220000000e-01 4.788978810000000e-02 1.216642120000000e-01 -3.280682590000000e-01
            7.987892600000000e-02 2.110465560000000e-02 7.783371200000000e-02 1.491015660000000e-02 1.246957430000000e-01 -3.285655210000000e-01 2.545965660000000e-01 4.738110040000000e-02
            2.547752500000000e-01 4.789183310000000e-02 1.246910220000000e-01 -3.285622710000000e-01 7.851011740000000e-02 1.642980340000000e-02 7.871239050000001e-02 1.871251290000000e-02
            1.216677610000000e-01 -3.280624900000000e-01 2.546043140000000e-01 4.737511280000000e-02 7.870647879999999e-02 1.869822940000000e-02 7.629285099999999e-02 2.021530800000000e-02
583014178.0000000000 8.523161880000001e-02 1.805084320000000e-02 8.916646659999999e-02 2.109618210000000e-02 2.571139400000000e-01 -1.210644650000000e-02 4.167349600000000e-02 -3.475215720000000e-01
            8.916886490000001e-02 2.108821860000000e-02 8.679987590000000e-02 1.537931830000000e-02 4.451348660000000e-02 -3.486947730000000e-01 2.568448070000000e-01 -1.255090290000000e-02
            2.571253570000000e-01 -1.211487020000000e-02 4.449872110000000e-02 -3.487063860000000e-01 8.805196100000000e-02 1.678748770000000e-02 8.767876140000000e-02 1.898079580000000e-02
            4.168897530000000e-02 -3.475129630000000e-01 2.568278190000000e-01 -1.255398170000000e-02 8.768987390000001e-02 1.897027870000000e-02 8.581631720000001e-02 2.054974650000000e-02
583513761.0000000000 9.332781160000000e-02 1.440162360000000e-02 9.750772920000000e-02 1.694754980000000e-02 2.459699800000000e-01 -7.051740700000000e-02 -4.029595720000000e-02 -3.476461220000000e-01
            9.749166110000000e-02 1.693923920000000e-02 9.491145490000000e-02 1.175135560000000e-02 -3.783363290000000e-02 -3.494581080000000e-01 2.455786930000000e-01 -7.088332520000000e-02
            2.459675690000000e-01 -7.053470400000000e-02 -3.782869340000000e-02 -3.494632990000000e-01 9.665613419999999e-02 1.287406050000000e-02 9.577877520000000e-02 1.511620300000000e-02
            -4.028509200000000e-02 -3.476385640000000e-01 2.455852480000000e-01 -7.089473790000000e-02 9.576143780000000e-02 1.510334640000000e-02 9.438102960000000e-02 1.664365960000000e-02
584013344.0000000000 9.887167110000000e-02 7.529432740000000e-03 1.031410810000000e-01 9.517135010000000e-03 2.221081410000000e-01 -1.246130630000000e-01 -1.197386380000000e-01 -3.288693010000000e-01
            1.031497570000000e-01 9.511547960000000e-03 1.004636830000000e-01 4.852335590000000e-03 -1.177625180000000e-01 -3.311957810000000e-01 2.216721610000000e-01 -1.248697090000000e-01
            2.221036220000000e-01 -1.246116170000000e-01 -1.177619790000000e-01 -3.312049090000000e-01 1.025812570000000e-01 5.643304390000000e-03 1.012144730000000e-01 7.992158080000001e-03
            -1.197537350000000e-01 -3.288724140000000e-01 2.216650190000000e-01 -1.248770970000000e-01 1.012246450000000e-01 8.000343930000001e-03 1.002992450000000e-01 9.457987940000001e-03
584512927.0000000000 1.007013630000000e-01 -1.080863930000000e-03 1.049356310000000e-01 3.452064260000000e-04 1.867751830000000e-01 -1.718733340000000e-01 -1.925537740000000e-01 -2.924915210000000e-01
            1.049344800000000e-01 3.573983580000000e-04 1.023014450000000e-01 -3.771035100000000e-03 -1.911620730000000e-01 -2.952300810000000e-01 1.862894800000000e-01 -1.720214520000000e-01
            1.867747320000000e-01 -1.718737790000000e-01 -1.911707910000000e-01 -2.952337740000000e-01 1.046615550000000e-01 -3.377556970000000e-03 1.028763040000000e-01 -8.236720200000000e-04
            -1.925521290000000e-01 -2.925037940000000e-01 1.862807490000000e-01 -1.720321970000000e-01 1.028737100000000e-01 -8.101476340000000e-04 1.023475500000000e-01 4.612580250000000e-04
585012510.0000000000 9.846003439999999e-02 -9.592901520000001e-03 1.025125050000000e-01 -8.660849980000000e-03 1.415532260000000e-01 -2.099040900000000e-01 -2.551210630000000e-01 -2.406156000000000e-01
            1.025024220000000e-01 -8.651969430000000e-03 1.000534470000000e-01 -1.228654870000000e-02 -2.543957350000000e-01 -2.435955500000000e-01 1.410253570000000e-01 -2.099525810000000e-01
            1.415432980000000e-01 -2.098951640000000e-01 -2.543980420000000e-01 -2.435946780000000e-01 1.024911750000000e-01 -1.225585170000000e-02 1.003756650000000e-01 -9.477320830000000e-03
            -2.551452370000000e-01 -2.406142880000000e-01 1.410312120000000e-01 -2.099424910000000e-01 1.003629290000000e-01 -9.482978390000001e-03 1.001965750000000e-01 -8.425667840000000e-03
585512093.0000000000 9.260556820000000e-02 -1.615788760000000e-02 9.635356110000000e-02 -1.563105420000000e-02 8.858340300000001e-02 -2.365645930000000e-01 -3.044094940000000e-01 -1.758018530000000e-01
            9.635740730000000e-02 -1.564290540000000e-02 9.421804770000000e-02 -1.887734360000000e-02 -3.043827730000000e-01 -1.788767500000000e-01 8.807737359999999e-02 -2.364700640000000e-01
            8.858333820000000e-02 -2.365727440000000e-01 -3.043875590000000e-01 -1.788624920000000e-01 9.663589770000000e-02 -1.918187990000000e-02 9.421087829999999e-02 -1.613903840000000e-02
            -3.043933760000000e-01 -1.757963360000000e-01 8.807221500000000e-02 -2.364822810000000e-01 9.420911970000000e-02 -1.614348670000000e-02 9.432105160000000e-02 -1.533442100000000e-02
586011676.0000000000 8.437488250000000e-02 -1.938322340000000e-02 8.773958000000000e-02 -1.913876620000000e-02 3.063637370000000e-02 -2.500876420000000e-01 -3.378646680000000e-01 -1.011482580000000e-01
            8.773854330000000e-02 -1.912744840000000e-02 8.596940570000000e-02 -2.209443850000000e-02 -3.385465840000000e-01 -1.041446330000000e-01 3.017243650000000e-02 -2.498716990000000e-01
            3.064018540000000e-02 -2.500819610000000e-01 -3.385560120000000e-01 -1.041525610000000e-01 8.829593380000000e-02 -2.266163930000000e-02 8.565206459999999e-02 -1.931744150000000e-02
            -3.378709040000000e-01 -1.011572260000000e-01 3.017396860000000e-02 -2.498853160000000e-01 8.565476460000000e-02 -1.933227570000000e-02 8.600361860000000e-02 -1.879904060000000e-02
586511259.0000000000 7.558165520000000e-02 -1.848564140000000e-02 7.850017110000000e-02 -1.836854740000000e-02 -2.894232710000000e-02 -2.494061770000000e-01 -3.534692950000000e-01 -2.027435810000000e-02
            7.851173320000000e-02 -1.837687460000000e-02 7.714567529999999e-02 -2.117926890000000e-02 -3.548663050000000e-01 -2.304378940000000e-02 -2.934343960000000e-02 -2.490937950000000e-01
            -2.892939020000000e-02 -2.494028740000000e-01 -3.548548050000000e-01 -2.305112590000000e-02 7.930514130000001e-02 -2.192570660000000e-02 7.650804999999999e-02 -1.829377080000000e-02
            -3.534775660000000e-01 -2.027278170000000e-02 -2.934939390000000e-02 -2.491039550000000e-01 7.651062100000000e-02 -1.829209900000000e-02 7.703169370000000e-02 -1.807906690000000e-02
587010842.0000000000 6.813019340000000e-02 -1.363046450000000e-02 7.066488830000001e-02 -1.348416340000000e-02 -8.650241879999999e-02 -2.344190950000000e-01 -3.499311500000000e-01 6.269077400000000e-02
            7.065914790000000e-02 -1.348346860000000e-02 6.970512930000000e-02 -1.631823380000000e-02 -3.519232860000000e-01 6.031517310000000e-02 -8.683208380000000e-02 -2.340270770000000e-01
            -8.650308430000000e-02 -2.344155970000000e-01 -3.519228240000000e-01 6.030988240000000e-02 7.169899740000001e-02 -1.712335740000000e-02 6.878451110000000e-02 -1.318152520000000e-02
            -3.499515590000000e-01 6.268519220000000e-02 -8.683367500000000e-02 -2.340176610000000e-01 6.878448840000000e-02 -1.318950100000000e-02 6.942272140000000e-02 -1.328615450000000e-02
587510425.0000000000 6.380469449999999e-02 -5.865157160000000e-03 6.596930530000000e-02 -5.578208060000000e-03 -1.384329030000000e-01 -2.061341750000000e-01 -3.268775570000000e-01 1.431731000000000e-01
            6.597319800000000e-02 -5.577517150000000e-03 6.536723870000000e-02 -8.532280070000000e-03 -3.293839190000000e-01 1.413089950000000e-01 -1.386654500000000e-01 -2.056756330000000e-01
            -1.384447170000000e-01 -2.061370790000000e-01 -3.293816580000000e-01 1.413061480000000e-01 6.718610420000000e-02 -9.314853559999999e-03 6.424168960000000e-02 -5.125360900000000e-03
            -3.268735290000000e-01 1.431750800000000e-01 -1.386729920000000e-01 -2.056656840000000e-01 6.424081919999999e-02 -5.104597520000000e-03 6.492816310000001e-02 -5.498374290000000e-03
588010008.0000000000 6.357888260000000e-02 3.005151590000000e-03 6.549595649999999e-02 3.588664080000000e-03 -1.816346060000000e-01 -1.665627160000000e-01 -2.851594770000000e-01 2.163779160000000e-01
            6.548634030000000e-02 3.569381610000000e-03 6.514378460000000e-02 3.409218370000000e-04 -2.880524760000000e-01 2.151493530000000e-01 -1.817435560000000e-01 -1.660756930000000e-01
            -1.816291630000000e-01 -1.665585850000000e-01 -2.880526670000000e-01 2.151561990000000e-01 6.685974109999999e-02 -3.267760380000000e-04 6.387920969999999e-02 4.161539640000000e-03
            -2.851866410000000e-01 2.163683120000000e-01 -1.817470580000000e-01 -1.660721860000000e-01 6.388328710000001e-02 4.154718750000000e-03 6.459206260000000e-02 3.466724800000000e-03
588509591.0000000000 6.749476109999999e-02 1.093142360000000e-02 6.930809670000000e-02 1.184085010000000e-02 -2.137591410000000e-01 -1.184983770000000e-01 -2.269919080000000e-01 2.777797580000000e-01
            6.930259580000001e-02 1.183480290000000e-02 6.908298970000000e-02 8.286477840000001e-03 -2.300778130000000e-01 2.772594590000000e-01 -2.137552500000000e-01 -1.179923960000000e-01
            -2.137450870000000e-01 -1.184945220000000e-01 -2.300840320000000e-01 2.772652930000000e-01 7.074587630000000e-02 7.778106540000000e-03 6.780864609999999e-02 1.249892380000000e-02
            -2.269979000000000e-01 2.777777160000000e-01 -2.137374410000000e-01 -1.179991770000000e-01 6.780952799999999e-02 1.250140470000000e-02 6.849230190000000e-02 1.153279860000000e-02
589009174.0000000000 7.463790020000000e-02 1.608358500000000e-02 7.647157430000000e-02 1.733187260000000e-02 -2.334582420000000e-01 -6.502301770000000e-02 -1.557943000000000e-01 3.235837540000000e-01
            7.647303029999999e-02 1.734548110000000e-02 7.621961140000000e-02 1.344346060000000e-02 -1.589174260000000e-01 3.238176670000000e-01 -2.333447030000000e-01 -6.453553410000000e-02
            -2.334629770000000e-01 -6.502788969999999e-02 -1.589273500000000e-01 3.238075220000000e-01 7.794376679999999e-02 1.310959910000000e-02 7.503775250000000e-02 1.808618690000000e-02
            -1.558077160000000e-01 3.235907500000000e-01 -2.333493040000000e-01 -6.454929990000000e-02 7.505942130000000e-02 1.807218760000000e-02 7.564498000000000e-02 1.685142700000000e-02
589508757.0000000000 8.327895470000000e-02 1.732476240000000e-02 8.530689020000000e-02 1.889325990000000e-02 -2.402751370000000e-01 -9.233032330000000e-03 -7.589961400000000e-02 3.511556780000000e-01
            8.531299750000000e-02 1.892875150000000e-02 8.490522960000001e-02 1.468610310000000e-02 -7.890135420000000e-02 3.521058710000000e-01 -2.400362230000000e-01 -8.795419660000000e-03
            -2.402837030000000e-01 -9.240242819999999e-03 -7.889440659999999e-02 3.520984600000000e-01 8.677203479999999e-02 1.452102730000000e-02 8.394433060000001e-02 1.971171590000000e-02
            -7.591002460000000e-02 3.511735730000000e-01 -2.400546660000000e-01 -8.794307340000000e-03 8.395588470000000e-02 1.970428970000000e-02 8.445359880000000e-02 1.826214650000000e-02
590008340.0000000000 9.148769250000000e-02 1.443153510000000e-02 9.382158400000000e-02 1.623362840000000e-02 -2.343412940000000e-01 4.603814690000000e-02 7.927158980000000e-03 3.591413510000000e-01
            9.384104900000000e-02 1.623733710000000e-02 9.313925230000000e-02 1.180715900000000e-02 5.248242490000000e-03 3.607631350000000e-01 -2.340206040000000e-01 4.641853500000000e-02
            -2.343442640000000e-01 4.603380150000000e-02 5.247548610000000e-03 3.607551400000000e-01 9.524099900000001e-02 1.174477110000000e-02 9.248059620000000e-02 1.713822470000000e-02
            7.949347000000001e-03 3.591530580000000e-01 -2.340178220000000e-01 4.640207990000000e-02 9.249388610000001e-02 1.714423560000000e-02 9.287892659999999e-02 1.549781820000000e-02
590507923.0000000000 9.745135330000000e-02 8.107541140000001e-03 1.001718440000000e-01 1.001847520000000e-02 -2.163032770000000e-01 9.818887900000001e-02 9.099279520000000e-02 3.475174270000000e-01
            1.001703910000000e-01 1.001491820000000e-02 9.910805100000000e-02 5.460625600000000e-03 8.876034350000001e-02 3.496802850000000e-01 -2.159136870000000e-01 9.846564250000001e-02
            -2.163093910000000e-01 9.818894430000000e-02 8.875405480000000e-02 3.496881420000000e-01 1.014839630000000e-01 5.464076730000000e-03 9.886621199999999e-02 1.105419930000000e-02
            9.099251200000000e-02 3.474720010000000e-01 -2.159083750000000e-01 9.846203069999999e-02 9.886225329999999e-02 1.104755920000000e-02 9.911595650000000e-02 9.211489610000000e-03
591007506.0000000000 9.985889489999999e-02 -2.628365820000000e-04 1.030032770000000e-01 1.611202250000000e-03 -1.870792990000000e-01 1.447981550000000e-01 1.688963070000000e-01 3.171739890000000e-01
            1.030082690000000e-01 1.606136590000000e-03 1.015286850000000e-01 -2.905924520000000e-03 1.672266110000000e-01 3.198144040000000e-01 -1.866481810000000e-01 1.449851060000000e-01
            -1.870829420000000e-01 1.448041370000000e-01 1.672304210000000e-01 3.198329610000000e-01 1.042512540000000e-01 -2.959745160000000e-03 1.017443510000000e-01 2.812105870000000e-03
            1.689086800000000e-01 3.171736130000000e-01 -1.866429250000000e-01 1.449694190000000e-01 1.017435770000000e-01 2.803710260000000e-03 1.018612340000000e-01 8.082761220000000e-04
591507089.0000000000 9.819302500000000e-02 -8.864904240000001e-03 1.017398670000000e-01 -7.169195610000000e-03 -1.480413490000000e-01 1.835906860000000e-01 2.377356310000000e-01 2.699851040000000e-01
            1.017255310000000e-01 -7.174482050000000e-03 9.985806060000001e-02 -1.151558770000000e-02 2.367413710000000e-01 2.729669040000000e-01 -1.475684310000000e-01 1.836753610000000e-01
            -1.480355730000000e-01 1.835980410000000e-01 2.367318470000000e-01 2.729566540000000e-01 1.029250210000000e-01 -1.172204200000000e-02 1.005809020000000e-01 -5.765408600000000e-03
            2.377517970000000e-01 2.699920640000000e-01 -1.475544560000000e-01 1.836657130000000e-01 1.005866590000000e-01 -5.772619350000000e-03 1.005460610000000e-01 -7.937211720000000e-03
592006672.0000000000 9.275730670000000e-02 -1.582768780000000e-02 9.665148570000000e-02 -1.445547150000000e-02 -1.009677330000000e-01 2.124363770000000e-01 2.941705660000000e-01 2.083354930000000e-01
            9.663542420000000e-02 -1.446700340000000e-02 9.442512910000000e-02 -1.852671400000000e-02 2.938407540000000e-01 2.114657910000000e-01 -1.004848360000000e-01 2.124039150000000e-01
            -1.009719670000000e-01 2.124449630000000e-01 2.938381460000000e-01 2.114716940000000e-01 9.780719459999999e-02 -1.899055690000000e-02 9.564734499999999e-02 -1.284727190000000e-02
            2.941601990000000e-01 2.083337470000000e-01 -1.004831460000000e-01 2.123952400000000e-01 9.564347580000000e-02 -1.284058090000000e-02 9.542100190000000e-02 -1.519442460000000e-02
592506255.0000000000 8.465563900000000e-02 -1.965301160000000e-02 8.879476500000000e-02 -1.865281800000000e-02 -4.828106980000000e-02 2.295090930000000e-01 3.352630170000000e-01 1.352269530000000e-01
            8.879691469999999e-02 -1.867403730000000e-02 8.630227829999999e-02 -2.233426360000000e-02 3.356913690000000e-01 1.383716910000000e-01 -4.781142250000000e-02 2.293615980000000e-01
            -4.826177210000000e-02 2.295024820000000e-01 3.356829370000000e-01 1.383462510000000e-01 8.995226290000000e-02 -2.318227720000000e-02 8.803936770000000e-02 -1.686067840000000e-02
            3.352649770000000e-01 1.352212710000000e-01 -4.780946560000000e-02 2.293705630000000e-01 8.802958880000000e-02 -1.684981950000000e-02 8.759248990000000e-02 -1.937402860000000e-02
593005838.0000000000 7.558147279999999e-02 -1.937689960000000e-02 7.984550820000000e-02 -1.885247770000000e-02 7.059027230000000e-03 2.335321250000000e-01 3.587061030000000e-01 5.417259610000000e-02
            7.984041190000001e-02 -1.884013820000000e-02 7.720778189999999e-02 -2.206098290000000e-02 3.598581450000000e-01 5.712842970000000e-02 7.465968770000000e-03 2.332994950000000e-01
            7.054758150000000e-03 2.335407680000000e-01 3.598468010000000e-01 5.712554440000000e-02 8.101592909999999e-02 -2.337837040000000e-02 7.940626730000000e-02 -1.690351050000000e-02
            3.587315540000000e-01 5.416551480000000e-02 7.458457390000000e-03 2.332812670000000e-01 7.941679700000000e-02 -1.691403440000000e-02 7.866635900000001e-02 -1.957289680000000e-02
593505421.0000000000 6.751621030000000e-02 -1.497012760000000e-02 7.181577629999999e-02 -1.489279080000000e-02 6.165525830000000e-02 2.241407050000000e-01 3.628412880000000e-01 -3.075761890000000e-02
            7.180905009999999e-02 -1.490387270000000e-02 6.912807910000000e-02 -1.764524710000000e-02 3.646376330000000e-01 -2.814831630000000e-02 6.199210290000000e-02 2.237951700000000e-01
            6.164930640000000e-02 2.241343650000000e-01 3.646449090000000e-01 -2.815307230000000e-02 7.299342500000000e-02 -1.947781360000000e-02 7.175084710000000e-02 -1.291492680000000e-02
            3.628510590000000e-01 -3.076529680000000e-02 6.198648950000000e-02 2.237986880000000e-01 7.173797290000000e-02 -1.290426650000000e-02 7.064694470000001e-02 -1.567425080000000e-02
594005004.0000000000 6.225259390000000e-02 -7.311793960000000e-03 6.648153420000000e-02 -7.711280580000000e-03 1.120715850000000e-01 2.019155050000000e-01 3.468815100000000e-01 -1.149505480000000e-01
            6.648917570000000e-02 -7.718627950000000e-03 6.388782229999999e-02 -9.965113290000001e-03 3.492508950000000e-01 -1.128003560000000e-01 1.123081040000000e-01 2.015049670000000e-01
            1.120841790000000e-01 2.019135750000000e-01 3.492660810000000e-01 -1.128141840000000e-01 6.762155050000000e-02 -1.235793430000000e-02 6.681385160000000e-02 -5.778226340000000e-03
            3.468815470000000e-01 -1.149459360000000e-01 1.123107570000000e-01 2.015053780000000e-01 6.681568060000000e-02 -5.767986500000000e-03 6.529746350000000e-02 -8.570542220000000e-03
594504587.0000000000 6.107102540000000e-02 1.950269880000000e-03 6.509408170000000e-02 1.125173120000000e-03 1.552066550000000e-01 1.685097360000000e-01 3.112832100000000e-01 -1.934655420000000e-01
            6.510593540000000e-02 1.124945290000000e-03 6.268592410000000e-02 -7.011072650000000e-04 3.140942860000000e-01 -1.919297720000000e-01 1.553285060000000e-01 1.680654850000000e-01
            1.551918640000000e-01 1.685123840000000e-01 3.140932800000000e-01 -1.919254010000000e-01 6.616565190000000e-02 -3.614713730000000e-03 6.580862940000000e-02 2.879533050000000e-03
            3.112814260000000e-01 -1.934567420000000e-01 1.553522080000000e-01 1.680537560000000e-01 6.581330360000000e-02 2.871476780000000e-03 6.384556110000000e-02 1.401420970000000e-04
595004170.0000000000 6.417305380000000e-02 1.072166800000000e-02 6.796433039999999e-02 9.526787159999999e-03 1.886767220000000e-01 1.263478440000000e-01 2.578284210000000e-01 -2.615218560000000e-01
            6.795964430000000e-02 9.528031770000001e-03 6.579552080000001e-02 8.097591620000000e-03 2.609075810000000e-01 -2.606937530000000e-01 1.886947710000000e-01 1.258821000000000e-01
            1.886716090000000e-01 1.263454090000000e-01 2.609299630000000e-01 -2.606907680000000e-01 6.891511470000000e-02 4.727129420000000e-03 6.899129510000000e-02 1.100457180000000e-02
            2.578210020000000e-01 -2.615158750000000e-01 1.886906910000000e-01 1.258800500000000e-01 6.898221580000000e-02 1.100994950000000e-02 6.657872060000000e-02 8.457945289999999e-03
595503753.0000000000 7.087919320000000e-02 1.709727750000000e-02 7.437652170000000e-02 1.558286220000000e-02 2.109380560000000e-01 7.824863620000000e-02 1.896127640000000e-01 -3.149732470000000e-01
            7.436667790000000e-02 1.560941060000000e-02 7.251504900000000e-02 1.450105040000000e-02 1.928232600000000e-01 -3.148896540000000e-01 2.108735060000000e-01 7.779860460000000e-02
            2.109414120000000e-01 7.823543450000001e-02 1.928242410000000e-01 -3.148692230000000e-01 7.514211320000000e-02 1.077588080000000e-02 7.562362150000000e-02 1.671357610000000e-02
            1.896244100000000e-01 -3.149676810000000e-01 2.108756920000000e-01 7.779452670000001e-02 7.561955770000001e-02 1.671069110000000e-02 7.277739449999999e-02 1.448410970000000e-02
596003336.0000000000 7.963480110000000e-02 1.975657160000000e-02 8.280153200000000e-02 1.798183310000000e-02 2.213990120000000e-01 2.708795410000000e-02 1.108160860000000e-01 -3.506570330000000e-01
            8.280254790000000e-02 1.798483650000000e-02 8.130577650000000e-02 1.715651570000000e-02 1.139371130000000e-01 -3.513386940000000e-01 2.212209950000000e-01 2.667452240000000e-02
            2.214017760000000e-01 2.707214290000000e-02 1.139459000000000e-01 -3.513422340000000e-01 8.334394110000000e-02 1.320337810000000e-02 8.415082350000000e-02 1.867875070000000e-02
            1.108124040000000e-01 -3.506640350000000e-01 2.212290120000000e-01 2.665089310000000e-02 8.417304120000001e-02 1.867854840000000e-02 8.095189260000001e-02 1.689926550000000e-02
596502919.0000000000 8.851201540000000e-02 1.822928900000000e-02 9.131687630000000e-02 1.623218480000000e-02 2.200210900000000e-01 -2.447533390000000e-02 2.608229900000000e-02 -3.667538610000000e-01
            9.132196560000000e-02 1.623086890000000e-02 9.020429100000001e-02 1.561990020000000e-02 2.896592490000000e-02 -3.681320840000000e-01 2.197534050000000e-01 -2.483170130000000e-02
            2.200224440000000e-01 -2.446468030000000e-02 2.897005170000000e-02 -3.681380510000000e-01 9.162994939999999e-02 1.158013390000000e-02 9.266089710000000e-02 1.648088690000000e-02
            2.607913410000000e-02 -3.667424200000000e-01 2.197523400000000e-01 -2.484982440000000e-02 9.266772420000000e-02 1.649837800000000e-02 8.922136949999999e-02 1.526375630000000e-02
597002502.0000000000 9.562987200000000e-02 1.295368240000000e-02 9.804941720000000e-02 1.080643670000000e-02 2.071994440000000e-01 -7.398062170000000e-02 -5.970949890000000e-02 -3.627277750000000e-01
            9.804610210000000e-02 1.079395590000000e-02 9.733998610000000e-02 1.035505530000000e-02 -5.722598710000000e-02 -3.647383240000000e-01 2.068654190000000e-01 -7.427166070000001e-02
            2.072048580000000e-01 -7.397985990000000e-02 -5.722119280000000e-02 -3.647447130000000e-01 9.816426850000000e-02 6.360013440000000e-03 9.926073030000000e-02 1.064526130000000e-02
            -5.970727840000000e-02 -3.627263440000000e-01 2.068585390000000e-01 -7.426991350000001e-02 9.924748140000000e-02 1.064005850000000e-02 9.570631800000000e-02 1.005848440000000e-02
597502085.0000000000 9.957455120000000e-02 5.159377660000000e-03 1.015460510000000e-01 2.904333830000000e-03 1.837028830000000e-01 -1.191567390000000e-01 -1.419928590000000e-01 -3.391383640000000e-01
            1.015568330000000e-01 2.900876890000000e-03 1.012799560000000e-01 2.552088760000000e-03 -1.400402400000000e-01 -3.416667020000000e-01 1.833219360000000e-01 -1.193588330000000e-01
            1.837026040000000e-01 -1.191554210000000e-01 -1.400289940000000e-01 -3.416772590000000e-01 1.015175420000000e-01 -1.277179730000000e-03 1.024937470000000e-01 2.400543250000000e-03
            -1.419686040000000e-01 -3.391368930000000e-01 1.833145110000000e-01 -1.193707330000000e-01 1.024972030000000e-01 2.375889990000000e-03 9.906672770000000e-02 2.470111220000000e-03
598001668.0000000000 9.954911040000000e-02 -3.400037340000000e-03 1.010957010000000e-01 -5.722714930000000e-03 1.505987430000000e-01 -1.578600550000000e-01 -2.165783520000000e-01 -2.974699100000000e-01
            1.010842110000000e-01 -5.727090190000000e-03 1.012700920000000e-01 -6.022493390000000e-03 -2.152498120000000e-01 -3.004021730000000e-01 1.501626490000000e-01 -1.579528250000000e-01
            1.505922210000000e-01 -1.578504860000000e-01 -2.152644240000000e-01 -3.004088170000000e-01 1.009776060000000e-01 -9.554134350000000e-03 1.016803150000000e-01 -6.498525820000000e-03
            -2.165643400000000e-01 -2.974788550000000e-01 1.501753750000000e-01 -1.579549030000000e-01 1.016745380000000e-01 -6.490582600000000e-03 9.852370700000000e-02 -5.799964450000000e-03
598501251.0000000000 9.568050760000001e-02 -1.090817470000000e-02 9.674773950000000e-02 -1.322792180000000e-02 1.093814490000000e-01 -1.879789750000000e-01 -2.797922970000000e-01 -2.399302380000000e-01
            9.673533519999999e-02 -1.323850540000000e-02 9.739907510000000e-02 -1.354769330000000e-02 -2.791858360000000e-01 -2.430920610000000e-01 1.089455720000000e-01 -1.879895090000000e-01
            1.093843250000000e-01 -1.879841340000000e-01 -2.791816520000000e-01 -2.430941380000000e-01 9.668520240000000e-02 -1.671034060000000e-02 9.691825420000000e-02 -1.415344270000000e-02
            -2.798117680000000e-01 -2.399279260000000e-01 1.089517610000000e-01 -1.879817500000000e-01 9.690954790000000e-02 -1.413599990000000e-02 9.421931040000001e-02 -1.294253910000000e-02
599000834.0000000000 8.885641070000000e-02 -1.576735790000000e-02 8.941457450000000e-02 -1.799282160000000e-02 6.211004460000000e-02 -2.077012070000000e-01 -3.284651750000000e-01 -1.693080680000000e-01
            8.942820529999999e-02 -1.797409500000000e-02 9.055155719999999e-02 -1.841128040000000e-02 -3.285922920000000e-01 -1.725220540000000e-01 6.169472930000000e-02 -2.075877570000000e-01
            6.211371740000000e-02 -2.076935150000000e-01 -3.285754450000000e-01 -1.725283970000000e-01 8.948062480000001e-02 -2.111253730000000e-02 8.916563919999999e-02 -1.889389820000000e-02
            -3.284241030000000e-01 -1.693191790000000e-01 6.169399460000000e-02 -2.075814870000000e-01 8.916340189999999e-02 -1.889723710000000e-02 8.704569669999999e-02 -1.733443190000000e-02
599500417.0000000000 8.059057180000000e-02 -1.688846370000000e-02 8.069155059999999e-02 -1.888299500000000e-02 1.143258880000000e-02 -2.155957280000000e-01 -3.598468250000000e-01 -8.901585010000000e-02
            8.068956340000000e-02 -1.888240900000000e-02 8.228692159999999e-02 -1.952433000000000e-02 -3.607128640000000e-01 -9.209651430000000e-02 1.105434640000000e-02 -2.153968380000000e-01
            1.143254050000000e-02 -2.155820900000000e-01 -3.607230190000000e-01 -9.210677130000000e-02 8.096505000000000e-02 -2.171969980000000e-02 8.002143859999999e-02 -1.966765920000000e-02
            -3.598466640000000e-01 -8.899582120000001e-02 1.105234710000000e-02 -2.153837680000000e-01 8.002509730000000e-02 -1.966417490000000e-02 7.852654340000000e-02 -1.795860110000000e-02
600000000.0000000000 7.281382470000000e-02 -1.397036400000000e-02 7.245008320000000e-02 -1.570234610000000e-02 -3.960566270000000e-02 -2.110303170000000e-01 -3.719482380000000e-01 -3.020514130000000e-03
            7.246337400000000e-02 -1.568722550000000e-02 7.449796420000000e-02 -1.659871610000000e-02 -3.735297910000000e-01 -5.841692220000000e-03 -3.994296770000000e-02 -2.107492940000000e-01
            -3.961459520000000e-02 -2.110376430000000e-01 -3.735321600000000e-01 -5.845402520000000e-03 7.300703000000000e-02 -1.828367840000000e-02 7.142890609999999e-02 -1.621504810000000e-02
            -3.719407580000000e-01 -3.023034390000000e-03 -3.993083250000000e-02 -2.107461890000000e-01 7.143680980000000e-02 -1.621536420000000e-02 7.061133230000000e-02 -1.454235770000000e-02
