! synthetic 10 m pair (cablecheck.synth) with VNA noise, 23 C
! synthetic measurement, noise -85.0 dB
# Hz S RI R 50
1000000.0000000000 4.338468397271418e-02 4.009683933473174e-02 1.659769086747622e-02 4.865459595825402e-02 9.194176807375776e-01 -3.045481205873771e-01 -5.813736313494232e-03 -9.886489545560193e-03
            1.660102057548294e-02 4.867386445832286e-02 4.338869175467321e-02 4.018851096961323e-02 -5.783269332969555e-03 -9.918454936519850e-03 9.194276487017702e-01 -3.046068152438066e-01
            9.194190380786177e-01 -3.045765613716693e-01 -5.750222425179100e-03 -9.940084427730960e-03 4.337284526229301e-02 4.010122611002764e-02 1.658678306312103e-02 4.865466495109563e-02
            -5.791202192352274e-03 -9.943231925009254e-03 9.193980635152053e-01 -3.045295197570185e-01 1.654587305250063e-02 4.861496647553091e-02 4.339552733666260e-02 4.013604685259688e-02
1499582.9858215179 6.316008512179402e-02 5.205835139971495e-02 3.504343925768501e-02 6.600519775160518e-02 8.537421094809736e-01 -4.426919539748349e-01 -1.148838634291501e-02 -1.148285413641773e-02
            3.505539213425199e-02 6.590849851260881e-02 6.314754668415996e-02 5.199838834142214e-02 -1.142670291624452e-02 -1.145363907628025e-02 8.538132318456025e-01 -4.427097049168611e-01
            8.536653955185882e-01 -4.426846532545774e-01 -1.155327331692213e-02 -1.149642515182188e-02 6.315309398524643e-02 5.201971153859468e-02 3.503831592484033e-02 6.588740417436918e-02
            -1.146966426876701e-02 -1.151450899422056e-02 8.537818424151339e-01 -4.427039161612021e-01 3.513931646716347e-02 6.601576577187313e-02 6.311582566357937e-02 5.209023271617080e-02
1999165.9716430358 8.506120616465299e-02 5.705008329216520e-02 5.768957583344466e-02 7.633674425197287e-02 7.685323139283851e-01 -5.671597126880347e-01 -1.739942220289041e-02 -1.030609494438618e-02
            5.758790929910518e-02 7.624368914578848e-02 8.501068777800472e-02 5.708832367205006e-02 -1.741912895700066e-02 -1.026567954210582e-02 7.685109335158824e-01 -5.672272367893757e-01
            7.684577948720983e-01 -5.671365049548360e-01 -1.745295545572096e-02 -1.019128293932184e-02 8.507566047755280e-02 5.707472046087350e-02 5.757081062439905e-02 7.626911060867163e-02
            -1.742969550890740e-02 -1.024495850322516e-02 7.685103954730723e-01 -5.670995106287235e-01 5.760979232462175e-02 7.629156127590728e-02 8.505839324223229e-02 5.701224145330936e-02
2498748.9574645539 1.070349797390994e-01 5.500170178171971e-02 8.182039347575937e-02 7.913572155078918e-02 6.665271635682962e-01 -6.752242073368657e-01 -2.242390333977648e-02 -6.597809207861599e-03
            8.181405060834658e-02 7.912688984890541e-02 1.069914311875656e-01 5.502991974214449e-02 -2.235640907703487e-02 -6.512390778692464e-03 6.664717874470408e-01 -6.752577498630419e-01
            6.665507679550012e-01 -6.752371349768650e-01 -2.239216540622432e-02 -6.494463995712142e-03 1.069645797118795e-01 5.503967754486648e-02 8.177247448389206e-02 7.917353404798722e-02
            -2.238921631438180e-02 -6.604351195865243e-03 6.665252526534019e-01 -6.752365499426033e-01 8.174590096368663e-02 7.910528100239231e-02 1.069702013153706e-01 5.497513332972962e-02
2998331.9432860715 1.269030050679112e-01 4.639453985144391e-02 1.051840333409928e-01 7.448086749375432e-02 5.509125194511806e-01 -7.653686149329935e-01 -2.545966703569768e-02 -1.157571940938031e-03
            1.051370313398692e-01 7.447501294027599e-02 1.269051842522070e-01 4.629081853257459e-02 -2.544117192358927e-02 -1.258812499638332e-03 5.508913241956872e-01 -7.654034471577211e-01
            5.508709140599818e-01 -7.653735818916401e-01 -2.545995634307384e-02 -1.195590472101175e-03 1.269081997968883e-01 4.637569256633253e-02 1.052381640539316e-01 7.446795999158246e-02
            -2.550359521537268e-02 -1.068569054372609e-03 5.508442325802838e-01 -7.654156530163962e-01 1.051981661577497e-01 7.452994561253679e-02 1.268803941630963e-01 4.634998796812730e-02
3497914.9291075896 1.429941902940915e-01 3.211967592465268e-02 1.257616878382199e-01 6.318276241674561e-02 4.246504276719149e-01 -8.364688952345078e-01 -2.635466043284359e-02 4.843007883890716e-03
            1.257891308889574e-01 6.317499601435660e-02 1.429903905380815e-01 3.204460370500808e-02 -2.633259486256749e-02 4.921133340101066e-03 4.247152343009336e-01 -8.364459673781194e-01
            4.247329935850351e-01 -8.363822817606025e-01 -2.628851110928155e-02 4.879125996544370e-03 1.430009982521549e-01 3.207735500881317e-02 1.257640759695220e-01 6.324401017966723e-02
            -2.631090723226965e-02 4.957632067124930e-03 4.247049832903382e-01 -8.364221118509216e-01 1.257958572612562e-01 6.322604162031265e-02 1.428766538376757e-01 3.211161787908359e-02
3997497.9149291078 1.538777438082382e-01 1.378101330936138e-02 1.417355476753237e-01 4.652774701622474e-02 2.907571581950175e-01 -8.876916394691318e-01 -2.491437538588046e-02 1.054353263668599e-02
            1.417083382382170e-01 4.647513145885002e-02 1.539175510893941e-01 1.377155618416269e-02 -2.493260321752317e-02 1.060157256207384e-02 2.908404430096332e-01 -8.876746960153049e-01
            2.908623006424669e-01 -8.875760838108402e-01 -2.491238259769829e-02 1.059200880438339e-02 1.538505832084930e-01 1.378419036366665e-02 1.416738606014173e-01 4.647917251023548e-02
            -2.485788847886647e-02 1.059319758382845e-02 2.908094097391806e-01 -8.875849994871706e-01 1.417066954881231e-01 4.652446174629066e-02 1.538911411500674e-01 1.382246890162057e-02
4497080.9007506259 1.587868970036193e-01 -6.960435833837843e-03 1.519333803466504e-01 2.601282115649415e-02 1.518701015247089e-01 -9.186443807945972e-01 -2.186523071113987e-02 1.504365806626805e-02
            1.518710819399014e-01 2.604957838297483e-02 1.588131798832389e-01 -7.057732754047480e-03 -2.190688764029588e-02 1.498242573149393e-02 1.518952305391922e-01 -9.186223742656575e-01
            1.519293495650182e-01 -9.186175156321638e-01 -2.192640435204196e-02 1.502738860859995e-02 1.586977797302395e-01 -7.080229129165038e-03 1.519238438197112e-01 2.603191527454817e-02
            -2.176446401558193e-02 1.498511727076787e-02 1.518289521084904e-01 -9.185841084434654e-01 1.518495824524757e-01 2.604952441485328e-02 1.588192652138059e-01 -7.018990708776241e-03
4996663.8865721431 1.572747123539301e-01 -2.832240701940713e-02 1.554682989835895e-01 3.594779197823523e-03 1.039569166959545e-02 -9.292759247943299e-01 -1.790966630861030e-02 1.779081816735086e-02
            1.554723040911428e-01 3.665620476987105e-03 1.573191920219464e-01 -2.844764878966043e-02 -1.793784017962644e-02 1.772679413264578e-02 1.037594694095826e-02 -9.292574728015396e-01
            1.039681662811329e-02 -9.292963748046812e-01 -1.796861184467088e-02 1.779630105642390e-02 1.573091892010979e-01 -2.841197863126001e-02 1.554435756501438e-01 3.639774065450113e-03
            -1.797427793803063e-02 1.774123275235581e-02 1.046746800539884e-02 -9.292962898787127e-01 1.554861497531533e-01 3.641108676471475e-03 1.573067868070661e-01 -2.838785241977937e-02
5496246.8723936612 1.495139570734357e-01 -4.865169344788645e-02 1.522165280393822e-01 -1.882180813419758e-02 -1.310934254157056e-01 -9.193972672996829e-01 -1.403592323725700e-02 1.859155880823110e-02
            1.522444926547716e-01 -1.883402683161469e-02 1.494475188387176e-01 -4.872297068033672e-02 -1.401969200577774e-02 1.866377671525020e-02 -1.311078158226752e-01 -9.193203016021397e-01
            -1.311263314751159e-01 -9.193515899844495e-01 -1.408863472774351e-02 1.864507692303301e-02 1.494792196910982e-01 -4.872474727194362e-02 1.522979152774442e-01 -1.883063414220258e-02
            -1.409957211927600e-02 1.868137306119693e-02 -1.310779728577080e-01 -9.192953181400623e-01 1.521482006077123e-01 -1.875710563662419e-02 1.494946868483254e-01 -4.871337013303585e-02
5995829.8582151793 1.359087321069584e-01 -6.597761502786044e-02 1.423665304747930e-01 -3.913315243942792e-02 -2.701030277358499e-01 -8.889269859344492e-01 -1.108518598527671e-02 1.802552495060336e-02
            1.424037815550942e-01 -3.923950312830151e-02 1.358993515369468e-01 -6.595172753336055e-02 -1.101595914794390e-02 1.803661416344784e-02 -2.700696851199936e-01 -8.889977170960082e-01
            -2.701015586789893e-01 -8.889569979464692e-01 -1.109940106201993e-02 1.806060246714912e-02 1.358732916262180e-01 -6.600889101908491e-02 1.423804347781560e-01 -3.932027905892766e-02
            -1.109558569595370e-02 1.805825468923409e-02 -2.700710848574507e-01 -8.889313541771438e-01 1.423096720879767e-01 -3.930758617878138e-02 1.359091634060025e-01 -6.606857229868127e-02
6495412.8440366974 1.174019564702974e-01 -7.871061152660469e-02 1.266430027586170e-01 -5.579607329517223e-02 -4.038553186832827e-01 -8.380063445542599e-01 -9.616662789244744e-03 1.675925842545212e-02
            1.267092562399791e-01 -5.581124428528961e-02 1.174312184004074e-01 -7.883164913600305e-02 -9.706112706022466e-03 1.672179645725591e-02 -4.037664942522858e-01 -8.380486391189408e-01
            -4.038456757290210e-01 -8.379881332331865e-01 -9.714346715078754e-03 1.675248669970947e-02 1.174018487927576e-01 -7.875614968243085e-02 1.266937089098214e-01 -5.580411999135156e-02
            -9.730865937960111e-03 1.674694117073180e-02 -4.038739725834242e-01 -8.380306949564880e-01 1.266719959987661e-01 -5.586058083153929e-02 1.174816108091458e-01 -7.876213178491286e-02
6994995.8298582155 9.562362077551900e-02 -8.564415011309449e-02 1.063837271268912e-01 -6.681350492893934e-02 -5.295705668531409e-01 -7.669764165664843e-01 -1.005478378970110e-02 1.551960383613620e-02
            1.065356605551956e-01 -6.685315074445086e-02 9.559204658734548e-02 -8.551922963172381e-02 -9.968661021664478e-03 1.554397047047334e-02 -5.296145782214048e-01 -7.669422712426438e-01
            -5.294995202430457e-01 -7.670761682341639e-01 -9.910142300902555e-03 1.549743092360108e-02 9.555975303627581e-02 -8.560835973505772e-02 1.065077079519470e-01 -6.685415496409719e-02
            -1.001724044749089e-02 1.552809733279406e-02 -5.295731623194831e-01 -7.670761072087459e-01 1.064425573021217e-01 -6.689342543260303e-02 9.567633640713182e-02 -8.556273300745401e-02
7494578.8156797336 7.218085169574461e-02 -8.556650495034178e-02 8.360678657237645e-02 -7.117584043927334e-02 -6.439648274910741e-01 -6.766929169346234e-01 -1.180770120150225e-02 1.556623296700081e-02
            8.360904400342299e-02 -7.113152511117930e-02 7.219697738697690e-02 -8.557547740979628e-02 -1.178725877045886e-02 1.559657992395098e-02 -6.440313131406017e-01 -6.767524130134835e-01
            -6.440021841806832e-01 -6.766463158742942e-01 -1.179017869322216e-02 1.554736483045122e-02 7.223650029641647e-02 -8.555776323764792e-02 8.362335887309544e-02 -7.115391716289164e-02
            -1.179360667965014e-02 1.564000903129869e-02 -6.439548178765940e-01 -6.767014613569226e-01 8.360825326703550e-02 -7.115884505900200e-02 7.224433675132662e-02 -8.562651090141316e-02
7994161.8015012508 4.950018671205692e-02 -7.837228918395227e-02 6.031071736161385e-02 -6.789029213373717e-02 -7.438211104426175e-01 -5.683360682261416e-01 -1.425829517435347e-02 1.756084422439654e-02
            6.028622289681693e-02 -6.787204305537965e-02 4.949696288086711e-02 -7.831942424868153e-02 -1.426463905964782e-02 1.769350787568635e-02 -7.437548219967491e-01 -5.684599163195359e-01
            -7.437867397149347e-01 -5.683445210596256e-01 -1.435921704709299e-02 1.768124839501959e-02 4.959324601981781e-02 -7.828270257513426e-02 6.034627566632712e-02 -6.792264735973391e-02
            -1.433508516938625e-02 1.767256576438408e-02 -7.437401990072450e-01 -5.684036394216886e-01 6.030807629781026e-02 -6.792747375507907e-02 4.953174370220378e-02 -7.824448413070181e-02
8493744.7873227689 2.985835436719251e-02 -6.421156886129509e-02 3.911242835482755e-02 -5.720126489762929e-02 -8.255740459390104e-01 -4.443397024393740e-01 -1.641366289251825e-02 2.199225046574966e-02
            3.919158564859257e-02 -5.723467322473256e-02 2.983058393779769e-02 -6.416062983443059e-02 -1.641103497010645e-02 2.190858391943713e-02 -8.255574956319421e-01 -4.444243862477902e-01
            -8.255962112528143e-01 -4.443712142770889e-01 -1.633689514885270e-02 2.204631915596830e-02 2.991686071620421e-02 -6.414524811747579e-02 3.912377694821506e-02 -5.724153399277575e-02
            -1.634003987366140e-02 2.199461493109679e-02 -8.256117925450190e-01 -4.443886145789738e-01 3.915314152286874e-02 -5.723482602103736e-02 2.991167985869681e-02 -6.413198732131889e-02
8993327.7731442861 1.537951738744601e-02 -4.432335423154903e-02 2.240248836751028e-02 -4.011421616336227e-02 -8.863396784657606e-01 -3.076765754801383e-01 -1.674384083985600e-02 2.848382638066069e-02
            2.236512844901680e-02 -4.014369789510135e-02 1.543874408984345e-02 -4.428479697397170e-02 -1.680472873317452e-02 2.847982259511958e-02 -8.863983656844900e-01 -3.075774024258955e-01
            -8.863558033109549e-01 -3.076648776970941e-01 -1.678885237008729e-02 2.849525243411231e-02 1.552323027042129e-02 -4.427783581784753e-02 2.240661216578992e-02 -4.016570252020051e-02
            -1.669899476276293e-02 2.850874591231828e-02 -8.863937501803395e-01 -3.076903518811259e-01 2.238390546052271e-02 -4.017247762919669e-02 1.553536560153407e-02 -4.425223303451216e-02
9492910.7589658052 7.839923850443910e-03 -2.080640877562068e-02 1.227897434040942e-02 -1.848880742975802e-02 -9.237033362823552e-01 -1.622461830878379e-01 -1.438776368314777e-02 3.630895426923973e-02
            1.218994717065553e-02 -1.850178153704391e-02 7.936061414933037e-03 -2.082133990105494e-02 -1.442949923515358e-02 3.630636592463406e-02 -9.236506266088556e-01 -1.621901219633476e-01
            -9.236415426109076e-01 -1.621784562742440e-01 -1.437663431547372e-02 3.629479694375299e-02 8.072045185827910e-03 -2.080483076362077e-02 1.218718174311149e-02 -1.850543652551936e-02
            -1.439487917701321e-02 3.627400785832050e-02 -9.236581235789288e-01 -1.622141247791601e-01 1.217578209045337e-02 -1.849527585351373e-02 8.056404904277333e-03 -2.080516454743213e-02
9992493.7447873224 8.306985117192028e-03 3.959778292335431e-03 9.591869440177691e-03 5.283218979393834e-03 -9.361218087844351e-01 -1.249090470954023e-02 -8.593744362029318e-03 4.411171991098092e-02
            9.606569669651425e-03 5.374530702523220e-03 8.393438457187864e-03 3.878712887306508e-03 -8.628210929797358e-03 4.401025115363565e-02 -9.360765450214212e-01 -1.246258554412130e-02
            -9.361181337055471e-01 -1.256820465743339e-02 -8.607000045840005e-03 4.404188801220601e-02 8.620034463596663e-03 3.961279440936606e-03 9.602925357140890e-03 5.364569612764113e-03
            -8.657134785560943e-03 4.419656699182550e-02 -9.360932750450303e-01 -1.247098617184033e-02 9.596102223444742e-03 5.266428302077786e-03 8.521175251082220e-03 3.895828981043534e-03
10492076.7306088414 1.664349591931081e-02 2.713573131326094e-02 1.494841613405499e-02 2.844786769437534e-02 -9.232637486931714e-01 1.364795501862703e-01 3.538717763793616e-04 5.033425927259434e-02
            1.497286392970632e-02 2.851146193054960e-02 1.667585660755247e-02 2.710015087036852e-02 3.419046420429883e-04 5.026525883066615e-02 -9.232638336699861e-01 1.364365009991166e-01
            -9.233461215551245e-01 1.364222019817784e-01 3.217217903154066e-04 5.034317968643875e-02 1.685210979443470e-02 2.707515498282143e-02 1.497084037109189e-02 2.845403682683067e-02
            2.981423910331164e-04 5.035868742577336e-02 -9.233223588884786e-01 1.364442422455902e-01 1.490909677649017e-02 2.850407037771135e-02 1.692203021240299e-02 2.700853694749896e-02
10991659.7164303586 3.172502381293723e-02 4.626761807480431e-02 2.742416534483976e-02 4.845652304896114e-02 -8.863345673382771e-01 2.801080542155527e-01 1.182098396261090e-02 5.383537971309456e-02
            2.744082142564559e-02 4.848482202412910e-02 3.168671108832583e-02 4.626971405448663e-02 1.179969597205173e-02 5.377943808485625e-02 -8.863058913425472e-01 2.801565848469006e-01
            -8.863191568059431e-01 2.801251264928866e-01 1.187361671225324e-02 5.378332927800761e-02 3.204139010080038e-02 4.617052174963734e-02 2.746487754023976e-02 4.838253437846692e-02
            1.185510227162171e-02 5.373260505512314e-02 -8.863515404139588e-01 2.801659994312154e-01 2.748958646284193e-02 4.845498822644689e-02 3.199492824380617e-02 4.612279692286635e-02
11491242.7022518776 5.182517657337727e-02 5.943678585336259e-02 4.551724946568424e-02 6.317773600562859e-02 -8.270390069892604e-01 4.143338411633645e-01 2.455658501244833e-02 5.351802288658139e-02
            4.540990878541209e-02 6.302978797525086e-02 5.182945228185210e-02 5.941929497239693e-02 2.449398680329905e-02 5.346781607267216e-02 -8.269680108574889e-01 4.144125218386661e-01
            -8.269402506076715e-01 4.143613326676649e-01 2.457060409286376e-02 5.347816209759193e-02 5.210916236874077e-02 5.923091792157877e-02 4.543342105080372e-02 6.307206462425841e-02
            2.452419839151365e-02 5.352626651072462e-02 -8.269131410558083e-01 4.143898504121242e-01 4.546472812856810e-02 6.308300581369962e-02 5.203923387611947e-02 5.924217983622701e-02
11990825.6880733948 7.460911518571739e-02 6.539041797609535e-02 6.684608416507616e-02 7.115197725912273e-02 -7.478590758665050e-01 5.358719792603459e-01 3.700082255845028e-02 4.945739549578846e-02
            6.686246308538241e-02 7.112499194938418e-02 7.453337647926429e-02 6.532110394283144e-02 3.703687326522440e-02 4.951546523186921e-02 -7.479133052126756e-01 5.358811197175055e-01
            -7.478669913487743e-01 5.359177467606778e-01 3.705419602344313e-02 4.946313082688535e-02 7.486763656259011e-02 6.516667329262725e-02 6.683313014596146e-02 7.104528006263035e-02
            3.701575703068394e-02 4.946269712849294e-02 -7.478465006770306e-01 5.359123750792163e-01 6.686342151379498e-02 7.107681825632695e-02 7.484841934676836e-02 6.515237003266211e-02
12490408.6738949120 9.764248463801713e-02 6.397319918224709e-02 8.927957637141361e-02 7.205342022425519e-02 -6.520251846708055e-01 6.421176180889984e-01 4.781817071575186e-02 4.196397000264231e-02
            8.922862172526297e-02 7.198938870361796e-02 9.767730806909032e-02 6.405358602189730e-02 4.783105723485037e-02 4.202718717548030e-02 -6.521573294985737e-01 6.421307552176407e-01
            -6.520890736872205e-01 6.421136272438963e-01 4.792543515194111e-02 4.190639484676081e-02 9.792411104691004e-02 6.363416697112892e-02 8.926909669499705e-02 7.201610584599294e-02
            4.788959017716309e-02 4.189614631788813e-02 -6.520492438713845e-01 6.421040573984875e-01 8.924755894996785e-02 7.201607072313175e-02 9.799007588290747e-02 6.370830943350654e-02
12989991.6597164311 1.186802021005171e-01 5.591565371852989e-02 1.104851799374600e-01 6.609872614198925e-02 -5.426401764249650e-01 7.313908976046528e-01 5.621028797605274e-02 3.199075606942701e-02
            1.105155788385432e-01 6.600994666097899e-02 1.186862208973948e-01 5.582034104727963e-02 5.619211046569754e-02 3.192653058630909e-02 -5.426056880890531e-01 7.313455168229795e-01
            -5.426407705426424e-01 7.313594208196632e-01 5.615474745082429e-02 3.191954718121468e-02 1.190193338966259e-01 5.518297897458729e-02 1.104130790419121e-01 6.601285138298650e-02
            5.617249810515769e-02 3.197938540033670e-02 -5.426270034658590e-01 7.313469645423744e-01 1.104460614592161e-01 6.606340799161503e-02 1.190565624875483e-01 5.529659775949493e-02
13489574.6455379482 1.359338372405071e-01 4.177365373176219e-02 1.286166494923865e-01 5.411325094960854e-02 -4.224166392141099e-01 8.024533598440812e-01 6.143620473053975e-02 2.053737334670154e-02
            1.285750023078457e-01 5.410166904915208e-02 1.360108034299417e-01 4.183317655589425e-02 6.139463646419067e-02 2.047631069507493e-02 -4.223827231191155e-01 8.024657842567181e-01
            -4.223507499600858e-01 8.025040393524313e-01 6.131730191435373e-02 2.050893843667189e-02 1.361682835323108e-01 4.120230750011553e-02 1.286461962372469e-01 5.405048589249672e-02
            6.130962395411346e-02 2.056306265254140e-02 -4.224107216367296e-01 8.024035129558871e-01 1.285688297604048e-01 5.413628054731460e-02 1.363007995121070e-01 4.117474927556029e-02
13989157.6313594673 1.480853574088043e-01 2.350175545728883e-02 1.421514004429580e-01 3.747412931621127e-02 -2.940898546806678e-01 8.546713701463863e-01 6.348303242249137e-02 9.047081043655838e-03
            1.421744901277740e-01 3.741253370713694e-02 1.480532390654496e-01 2.344421094432692e-02 6.347014797821264e-02 9.032760406465465e-03 -2.941013259273345e-01 8.546949625516773e-01
            -2.941134401946270e-01 8.546581008290297e-01 6.346431396015990e-02 9.011882842185171e-03 1.482922450532575e-01 2.266907523410346e-02 1.421215015254280e-01 3.747807603843487e-02
            6.348961950614290e-02 9.013663348457030e-03 -2.941089943210648e-01 8.546595632779186e-01 1.422046185567253e-01 3.745070467822947e-02 1.482321346301732e-01 2.269085683390944e-02
14488740.6171809845 1.540836934410371e-01 2.604445744706388e-03 1.500679568986379e-01 1.756674424297773e-02 -1.603786701743307e-01 8.875087404377962e-01 6.295594327833030e-02 -1.768304241932898e-03
            1.500842650568960e-01 1.766248897496066e-02 1.540163281570437e-01 2.629550501710471e-03 6.293879976580677e-02 -1.733820294766666e-03 -1.604158057492079e-01 8.875019546999530e-01
            -1.603930463746375e-01 8.875034337282205e-01 6.295580278369869e-02 -1.780569726862332e-03 1.541576704317086e-01 1.689161844951796e-03 1.500700103355431e-01 1.760295538510395e-02
            6.301722017531866e-02 -1.772049734683439e-03 -1.603567268337280e-01 8.874480417589595e-01 1.499982858027268e-01 1.763029247390764e-02 1.541164825979683e-01 1.634958085408106e-03
14988323.6030025017 1.535180407303252e-01 -1.899895249403194e-02 1.517715142153740e-01 -3.535930146571142e-03 -2.353304449850059e-02 9.005753463410847e-01 6.061305738190762e-02 -1.111606660036273e-02
            1.516882912347952e-01 -3.487565296856831e-03 1.534636739592957e-01 -1.903907121706946e-02 6.059309662614101e-02 -1.112486495142467e-02 -2.357667071288401e-02 9.005976058924603e-01
            -2.356156626737430e-02 9.006709086140215e-01 6.069720950006426e-02 -1.110025707356632e-02 1.534491417912082e-01 -2.001914088623192e-02 1.516836928851809e-01 -3.521812849149688e-03
            6.069448917690670e-02 -1.111887440635104e-02 -2.356621091969472e-02 9.006067186389881e-01 1.516936512975601e-01 -3.558049853068294e-03 1.534755011562050e-01 -2.000859775948071e-02
15487906.5888240207 1.465216636085448e-01 -3.942568820575736e-02 1.469379214264165e-01 -2.434180752698021e-02 1.138614960200043e-01 8.937453730947884e-01 5.727300629460156e-02 -1.884522660158333e-02
            1.469194726860342e-01 -2.421326479865493e-02 1.465440005603546e-01 -3.946510165206946e-02 5.729950949368536e-02 -1.889368694369452e-02 1.138254002843657e-01 8.937573869992689e-01
            1.138602130304136e-01 8.938005861210634e-01 5.722171069669744e-02 -1.892258991220000e-02 1.463417996322213e-01 -4.058134293609620e-02 1.468834597961530e-01 -2.419075658513302e-02
            5.728876434027418e-02 -1.894338407580977e-02 1.138719528492757e-01 8.937950199252578e-01 1.468821214997694e-01 -2.429166721538343e-02 1.463049827192282e-01 -4.057971023032698e-02
15987489.5746455379 1.337220346595607e-01 -5.704500648976853e-02 1.361480178138740e-01 -4.261128263873747e-02 2.494523552726733e-01 8.668162056427068e-01 5.379353468603718e-02 -2.514045664054460e-02
            1.362292124652288e-01 -4.261807899250676e-02 1.337279072681483e-01 -5.698193624142078e-02 5.381758124841268e-02 -2.516387028295325e-02 2.494628863249437e-01 8.667387834841166e-01
            2.494071975905945e-01 8.667727092193137e-01 5.374520472061482e-02 -2.521597868081854e-02 1.332721305094424e-01 -5.816689217965719e-02 1.360531260089251e-01 -4.258365720937749e-02
            5.382198034909604e-02 -2.524716816155326e-02 2.494233192490296e-01 8.668418357877868e-01 1.360535466703804e-01 -4.267807636660106e-02 1.333040760989858e-01 -5.820994451021390e-02
16487072.5604670569 1.161038765733242e-01 -7.000086653316009e-02 1.200398455978919e-01 -5.706971863748004e-02 3.804064638293492e-01 8.197527089378026e-01 5.070040459925066e-02 -3.057190913643335e-02
            1.200702842194057e-01 -5.705331334085608e-02 1.161680775144344e-01 -6.999536574203431e-02 5.064411774112679e-02 -3.064490762728617e-02 3.803543778215611e-01 8.196900862053135e-01
            3.803494732831674e-01 8.196762928666523e-01 5.074343834826078e-02 -3.063385858734012e-02 1.153968871552853e-01 -7.120366429232941e-02 1.200569933597101e-01 -5.708358940386387e-02
            5.072264767907290e-02 -3.056713434241901e-02 3.804075492609530e-01 8.197165171758312e-01 1.199784112545679e-01 -5.704601268350681e-02 1.154078610357568e-01 -7.121564175899271e-02
16986655.5462885723 9.513369508301504e-02 -7.703480332337688e-02 1.002036957888337e-01 -6.598414152812586e-02 5.038463735098806e-01 7.526862460734973e-01 4.825500664642738e-02 -3.590325241538902e-02
            1.002871890546352e-01 -6.594766558895988e-02 9.507717217906524e-02 -7.708981877876639e-02 4.829096444191507e-02 -3.581774282512838e-02 5.038370036590786e-01 7.528606834170458e-01
            5.039170107107189e-01 7.527386011965620e-01 4.828408474003034e-02 -3.580967021616485e-02 9.409173391995083e-02 -7.831668379729197e-02 1.002075851155913e-01 -6.589911647994964e-02
            4.835261198779221e-02 -3.584963434033896e-02 5.038488816984538e-01 7.528186832963851e-01 1.001485655541485e-01 -6.589840623432683e-02 9.421070590954542e-02 -7.826368572674884e-02
17486238.5321100913 7.252641795208700e-02 -7.726067278549945e-02 7.824475000019414e-02 -6.835325299646217e-02 6.166217838130953e-01 6.666451427770831e-01 4.620458835055345e-02 -4.187772307523542e-02
            7.830087297552582e-02 -6.832526644453987e-02 7.260946757340293e-02 -7.730855764740518e-02 4.623781488718669e-02 -4.185175366549398e-02 6.166238064592360e-01 6.666484415423658e-01
            6.166959159320718e-01 6.666849152418851e-01 4.630165703309378e-02 -4.182682503230885e-02 7.144132665549040e-02 -7.847341949444715e-02 7.824024044085037e-02 -6.827615199897810e-02
            4.622793927717139e-02 -4.183598910659714e-02 6.167124675607571e-01 6.665772761937748e-01 7.816241364614997e-02 -6.832795378998049e-02 7.142359054193136e-02 -7.838834015484837e-02
17985821.5179316103 5.083969678618257e-02 -7.050862214977900e-02 5.654923342174795e-02 -6.355057837813792e-02 7.154440479639972e-01 5.627082258539384e-01 4.387787808786590e-02 -4.917757861649364e-02
            5.650935406429094e-02 -6.353886325032460e-02 5.089160688569477e-02 -7.045012546822003e-02 4.387631322970164e-02 -4.913415412244881e-02 7.154032843575414e-01 5.627269487194931e-01
            7.153949525792841e-01 5.627472722310844e-01 4.386174339058520e-02 -4.907072744681941e-02 4.940517185726649e-02 -7.147500821722678e-02 5.642087304786078e-02 -6.350811515313878e-02
            4.395302810965429e-02 -4.898799100087804e-02 7.154351631900401e-01 5.627822127933367e-01 5.636667420698723e-02 -6.349434612363705e-02 4.937646703847705e-02 -7.146582962694746e-02
18485404.5037531294 3.213015717549498e-02 -5.694443968260002e-02 3.717462499012194e-02 -5.196455444782844e-02 7.968465164271695e-01 4.432043373034681e-01 4.039593053860396e-02 -5.779417999744901e-02
            3.711797014921638e-02 -5.199180792465011e-02 3.216236405976836e-02 -5.685320251726466e-02 4.035225727817370e-02 -5.777548531117821e-02 7.968760640138005e-01 4.432736967063444e-01
            7.968120893115193e-01 4.431874293076868e-01 4.028401151523881e-02 -5.775676344886788e-02 3.042370036086479e-02 -5.779402004648756e-02 3.707087846101652e-02 -5.184174636732547e-02
            4.038609431936822e-02 -5.776536286827072e-02 7.968399151785440e-01 4.432766629560430e-01 3.699746682193329e-02 -5.183714905092662e-02 3.032946494922979e-02 -5.768729650478262e-02
18984987.4895746447 1.860409253003723e-02 -3.777255745568370e-02 2.240024002013524e-02 -3.458228899359413e-02 8.577883733132446e-01 3.110527525837523e-01 3.449436027235372e-02 -6.749279460500758e-02
            2.247719685463553e-02 -3.456601782433366e-02 1.866253696441387e-02 -3.779423842647779e-02 3.452008452727870e-02 -6.750247951356847e-02 8.577822928036239e-01 3.110716884449634e-01
            8.577654036090582e-01 3.110797491958757e-01 3.451589792222694e-02 -6.755473184776020e-02 1.663886076078507e-02 -3.846658191933097e-02 2.219935609870713e-02 -3.447200535039505e-02
            3.443988600663500e-02 -6.751409424759264e-02 8.577971607200900e-01 3.110732901767720e-01 2.218539540623849e-02 -3.438514123589551e-02 1.666102125547873e-02 -3.849789584073939e-02
19484570.4753961638 1.201463082853236e-02 -1.540748319411750e-02 1.413866134951026e-02 -1.323962044217267e-02 8.959691654226348e-01 1.701496222336853e-01 2.543937260680734e-02 -7.736990255735640e-02
            1.417362764587975e-02 -1.321205658714663e-02 1.207793473117134e-02 -1.531894104730558e-02 2.547266760968695e-02 -7.742494102044392e-02 8.959652546000563e-01 1.702213169945903e-01
            8.959941310383074e-01 1.701811869525473e-01 2.548580065014159e-02 -7.740184576933380e-02 9.895171463518529e-03 -1.564200926378955e-02 1.408222086198222e-02 -1.308467327180538e-02
            2.547011675892426e-02 -7.734559080083539e-02 8.961021051015822e-01 1.701966909742431e-01 1.406595077848908e-02 -1.306223215397365e-02 9.807489774959740e-03 -1.559697528613742e-02
19984153.4612176828 1.298943361460727e-02 8.076956765295509e-03 1.334480414475324e-02 9.494274896572006e-03 9.101972385002658e-01 2.498709638804314e-02 1.289615113479127e-02 -8.600122312009065e-02
            1.336564850027427e-02 9.556858714729744e-03 1.298962930506163e-02 8.140578280820859e-03 1.295779325054619e-02 -8.600372727559479e-02 9.101459011686562e-01 2.501017270645452e-02
            9.101009168181295e-01 2.492710163427526e-02 1.298172579075165e-02 -8.602288380080748e-02 1.071636353292698e-02 8.137420985757201e-03 1.328246209099667e-02 9.741234545532787e-03
            1.302092869031843e-02 -8.607173989680060e-02 9.101415745121957e-01 2.497609876842005e-02 1.325256053261281e-02 9.719052267840467e-03 1.066062828122745e-02 8.110500846093207e-03
20483736.4470391981 2.155907246793640e-02 2.989956158767917e-02 2.001792016041461e-02 3.123571052706211e-02 8.997742187299701e-01 -1.198898141566902e-01 -2.601656224518128e-03 -9.202749193224539e-02
            2.007226022071953e-02 3.129482797161043e-02 2.158415460481512e-02 2.990451619454893e-02 -2.723264980138718e-03 -9.200633700907088e-02 8.998542984510923e-01 -1.198664886103407e-01
            8.997122020088382e-01 -1.198222826794817e-01 -2.728132824522014e-03 -9.202658962351068e-02 1.919194697307794e-02 3.020127749452758e-02 1.990518548650258e-02 3.152612308940136e-02
            -2.729138003530960e-03 -9.204606696395706e-02 8.997731284395767e-01 -1.198131161007410e-01 1.996772979422884e-02 3.155003212917572e-02 1.915961006970938e-02 3.034151686576799e-02
20983319.4328607172 3.660380801963851e-02 4.756796729964579e-02 3.321777307680957e-02 4.945883168520120e-02 8.659409992660095e-01 -2.599025942603353e-01 -2.052818270135886e-02 -9.415739079043954e-02
            3.316511650807850e-02 4.940273651949673e-02 3.653071433282881e-02 4.761483593931045e-02 -2.064299744760699e-02 -9.419025388309309e-02 8.658753517347695e-01 -2.598905303974349e-01
            8.659179183639093e-01 -2.599602055289742e-01 -2.053138443367727e-02 -9.413010022221294e-02 3.415245688566895e-02 4.837780130781594e-02 3.316852402147648e-02 4.972104571943271e-02
            -2.061488398270802e-02 -9.415868299237952e-02 8.659187784523139e-01 -2.599699098000495e-01 3.317627314837036e-02 4.974508783583035e-02 3.412306104924233e-02 4.834793284285498e-02
21482902.4186822362 5.615279142796131e-02 5.945164502515916e-02 5.127479778750398e-02 6.219285287474439e-02 8.104365136809442e-01 -3.911118823954197e-01 -3.931811336708523e-02 -9.173217051622545e-02
            5.128415013742411e-02 6.230096668477172e-02 5.612540214365302e-02 5.935873722296792e-02 -3.922436460486329e-02 -9.165540234021760e-02 8.103663459296105e-01 -3.911487498653181e-01
            8.103131344336539e-01 -3.910688289689238e-01 -3.922763894999790e-02 -9.168778104312326e-02 5.391568358194574e-02 6.056459485266875e-02 5.136041074874885e-02 6.268044755424385e-02
            -3.918544628719629e-02 -9.169879757813595e-02 8.103932254833428e-01 -3.910943615286278e-01 5.127028739477930e-02 6.255908412507775e-02 5.386292047609966e-02 6.052476738895460e-02
21982485.4045037553 7.819676392182670e-02 6.414229430785957e-02 7.213067930126206e-02 6.859665576556495e-02 7.356552433631297e-01 -5.103261579297659e-01 -5.712433429264115e-02 -8.468980429539071e-02
            7.216792482316486e-02 6.856398225037184e-02 7.824791369651134e-02 6.417002568204450e-02 -5.717041742936532e-02 -8.465297582024640e-02 7.356496206266961e-01 -5.103153484132581e-01
            7.355866394473103e-01 -5.103462469910288e-01 -5.711450883427370e-02 -8.470132560963010e-02 7.595721335132784e-02 6.578509533499076e-02 7.237705734224295e-02 6.893735368221460e-02
            -5.712562859835201e-02 -8.468241390284628e-02 7.356810116633343e-01 -5.103061682781660e-01 7.228513859227222e-02 6.886998744619521e-02 7.598205146827391e-02 6.574136468620144e-02
22482068.3903252706 1.002975896040583e-01 6.191911558136681e-02 9.353192378792860e-02 6.803268256263914e-02 6.443680698106957e-01 -6.150705187762961e-01 -7.284123583773501e-02 -7.352228603176475e-02
            9.365951807627930e-02 6.803709620735755e-02 1.003031208926591e-01 6.193759826633896e-02 -7.289463579544664e-02 -7.351075615414507e-02 6.444329157976757e-01 -6.151144063908460e-01
            6.443814282349464e-01 -6.151619414418984e-01 -7.293687260319538e-02 -7.357784841730534e-02 9.821072059630029e-02 6.388485728986243e-02 9.381111798408134e-02 6.830052412074418e-02
            -7.290414645937848e-02 -7.354517704156845e-02 6.443854629166317e-01 -6.151393636733454e-01 9.369194287193623e-02 6.827401433337854e-02 9.819864009091657e-02 6.388508853817734e-02
22981651.3761467896 1.201930624818573e-01 5.316476769661532e-02 1.135624247548782e-01 6.100049002505114e-02 5.395764778278022e-01 -7.037137265912798e-01 -8.548230981900744e-02 -5.926542503504462e-02
            1.134592188952488e-01 6.094542319871088e-02 1.202946237839449e-01 5.307008272395079e-02 -8.549122536371215e-02 -5.933390084661305e-02 5.396664304729816e-01 -7.038053930453031e-01
            5.396615510607661e-01 -7.038361026883403e-01 -8.543654889683540e-02 -5.931226154827433e-02 1.184955404049637e-01 5.537302169199518e-02 1.138022378347061e-01 6.115123850294506e-02
            -8.549329031177717e-02 -5.929681512987282e-02 5.396098602213322e-01 -7.038151777483836e-01 1.137970978654523e-01 6.116843500113640e-02 1.185394623195124e-01 5.538615962790642e-02
23481234.3619683087 1.363222366749126e-01 3.874326922077424e-02 1.302063957429485e-01 4.848864867629620e-02 4.239157262901325e-01 -7.751757325317429e-01 -9.426205732305126e-02 -4.321287299862601e-02
            1.301060123743958e-01 4.848599079145376e-02 1.362488728787625e-01 3.874392825095498e-02 -9.432812224600626e-02 -4.325399662899229e-02 4.238921206738335e-01 -7.751471435350097e-01
            4.239701458769096e-01 -7.751561710188623e-01 -9.426683480376911e-02 -4.316857959896636e-02 1.349823288406996e-01 4.131208608969004e-02 1.304234421084130e-01 4.857847538233874e-02
            -9.429263575382650e-02 -4.325924655336664e-02 4.239081667979330e-01 -7.751330706942898e-01 1.303786818494596e-01 4.852189481474400e-02 1.349495122487025e-01 4.134178048119878e-02
23980817.3477898240 1.471673195763628e-01 2.049818812167153e-02 1.419865783386783e-01 3.155819525287970e-02 3.000047808432368e-01 -8.284058696891736e-01 -9.949632161683063e-02 -2.651351099857015e-02
            1.420234794882357e-01 3.161927747514478e-02 1.471315846051402e-01 2.044268461549476e-02 -9.944811027228745e-02 -2.661604536942814e-02 2.999384238424407e-01 -8.284490231328372e-01
            3.000193804878826e-01 -8.283339537062150e-01 -9.940456027582523e-02 -2.654495881209502e-02 1.462349328201789e-01 2.311673752962148e-02 1.423488033482547e-01 3.172520889838028e-02
            -9.947867958195425e-02 -2.653082501780506e-02 2.999664355137023e-01 -8.283483896690917e-01 1.422962353505061e-01 3.169319729903552e-02 1.462056420010998e-01 2.317721507253981e-02
24480400.3336113431 1.520496518396759e-01 -6.627873834216602e-05 1.483185190162708e-01 1.215107281899467e-02 1.701571484092240e-01 -8.629806387130160e-01 -1.012338225644591e-01 -1.012244695588112e-02
            1.483135231100885e-01 1.214818544779794e-02 1.519439180783547e-01 -2.314744387886432e-05 -1.012132278652284e-01 -1.022083157223029e-02 1.701888009314408e-01 -8.628610759688188e-01
            1.701592271689013e-01 -8.628663148603540e-01 -1.012358388996141e-01 -1.024662260670085e-02 1.514504446891756e-01 2.764546575600722e-03 1.485966364822231e-01 1.219070715936829e-02
            -1.012519998953911e-01 -1.026960639842011e-02 1.702117235360614e-01 -8.628877688532292e-01 1.486380565503627e-01 1.222627141679156e-02 1.515102816126322e-01 2.730631594521986e-03
24979983.3194328621 1.504372172398817e-01 -2.115784943556719e-02 1.484188969434584e-01 -8.187024445082057e-03 3.692395853166144e-02 -8.782028974354880e-01 -1.003279893104258e-01 5.129529900572033e-03
            1.484602026101456e-01 -8.211949454927644e-03 1.504179367355418e-01 -2.111919760396544e-02 -1.003680047492649e-01 5.058270328068894e-03 3.681672882829091e-02 -8.782447228173623e-01
            3.687275329484963e-02 -8.782231269381100e-01 -1.004530478838880e-01 5.167973252358065e-03 1.503328713315021e-01 -1.827116079723294e-02 1.487262595996857e-01 -8.240996239307331e-03
            -1.003758242093489e-01 5.037559764796151e-03 3.694645405161982e-02 -8.782312809686509e-01 1.487998481889804e-01 -8.254183129292228e-03 1.503727614887773e-01 -1.832183015615246e-02
25479566.3052543774 1.426876004872125e-01 -4.082669405382895e-02 1.425273057020041e-01 -2.774846385569537e-02 -9.758416636123604e-02 -8.738995834028053e-01 -9.763177624869183e-02 1.897574657712391e-02
            1.425603692141102e-01 -2.779394433315273e-02 1.427774420231218e-01 -4.078982721056357e-02 -9.772013587555592e-02 1.888786146683363e-02 -9.753366722771822e-02 -8.740182803016853e-01
            -9.752168730170933e-02 -8.740364847621712e-01 -9.761722823258524e-02 1.894663508768869e-02 1.430730541852779e-01 -3.797383587804206e-02 1.428436573636883e-01 -2.789121876842565e-02
            -9.771856384011332e-02 1.892124965116553e-02 -9.759405822104815e-02 -8.739191431383055e-01 1.429225210426492e-01 -2.780602411470925e-02 1.429969893679687e-01 -3.797628976632868e-02
25979149.2910758965 1.292878065391010e-01 -5.737840553971704e-02 1.309647520559174e-01 -4.468846358355138e-02 -2.306537840603581e-01 -8.498665621104389e-01 -9.395453254899222e-02 3.151246598759352e-02
            1.310039287737566e-01 -4.475445701191160e-02 1.293292206387779e-01 -5.740918516980163e-02 -9.387998734943984e-02 3.145013689848178e-02 -2.305919429511014e-01 -8.499564228204920e-01
            -2.305287574208852e-01 -8.498914183440186e-01 -9.381525923763590e-02 3.146705680277909e-02 1.299566992563285e-01 -5.464113399790164e-02 1.312509840475680e-01 -4.488202874967646e-02
            -9.390329924840843e-02 3.146973674526197e-02 -2.305378128988431e-01 -8.499297857842563e-01 1.312509338626111e-01 -4.488614833908232e-02 1.299995105994754e-01 -5.465217923285535e-02
26478732.2768974155 1.113132829636996e-01 -6.923417469709160e-02 1.146174875013812e-01 -5.752176682457424e-02 -3.595103111994841e-01 -8.059734819113180e-01 -8.953240685312100e-02 4.320183486287786e-02
            1.146155816938035e-01 -5.753505516470183e-02 1.113743641641072e-01 -6.924067196261507e-02 -8.954974060384618e-02 4.321471361645494e-02 -3.594987451416260e-01 -8.059415016168401e-01
            -3.594432596156237e-01 -8.059055305778292e-01 -8.953526706881214e-02 4.318766380260702e-02 1.124011539278569e-01 -6.670764523302722e-02 1.149058238221637e-01 -5.764870653069998e-02
            -8.951574900252944e-02 4.328986863848398e-02 -3.594822566811841e-01 -8.059388672339558e-01 1.148802131358630e-01 -5.769323377420994e-02 1.123623027226042e-01 -6.664526190080255e-02
26978315.2627189346 9.035993776397497e-02 -7.515266566667173e-02 9.495904487769059e-02 -6.473177718221701e-02 -4.813331664929786e-01 -7.422476490768639e-01 -8.482886783370785e-02 5.461552923217909e-02
            9.491774894722477e-02 -6.464735752336705e-02 9.030582243129433e-02 -7.508423122989538e-02 -8.477586950377716e-02 5.460069176221386e-02 -4.813509012976130e-01 -7.422705479304876e-01
            -4.814034265530919e-01 -7.421684678646516e-01 -8.471362187186984e-02 5.465222504909070e-02 9.172644605621993e-02 -7.285799198555637e-02 9.515549801622729e-02 -6.494641340177255e-02
            -8.474140169563878e-02 5.463205215743370e-02 -4.813024117743337e-01 -7.422564716661183e-01 9.517145758811472e-02 -6.496029895642896e-02 9.167071751828816e-02 -7.283192560339470e-02
27477898.2485404499 6.822041944349304e-02 -7.419797676663087e-02 7.356818753752227e-02 -6.547404887345783e-02 -5.929620321794056e-01 -6.595108543884194e-01 -7.933685833098653e-02 6.636827036962084e-02
            7.368949424440038e-02 -6.543861739776148e-02 6.827008469915345e-02 -7.411286080900305e-02 -7.938020855176225e-02 6.634298580681121e-02 -5.929314245526072e-01 -6.594843812132819e-01
            -5.929402636070269e-01 -6.595567413882121e-01 -7.931477906569323e-02 6.629457821042183e-02 6.993288915161675e-02 -7.221970597908432e-02 7.381494592824747e-02 -6.572788559638297e-02
            -7.921465654246200e-02 6.632021416323186e-02 -5.929442286028139e-01 -6.595343670074132e-01 7.381465346208395e-02 -6.575510237770003e-02 6.989362425175702e-02 -7.224319552621460e-02
27977481.2343619689 4.721174338604154e-02 -6.629737682044082e-02 5.301757628849443e-02 -5.937944210133093e-02 -6.909095181086610e-01 -5.591640854221164e-01 -7.263895929989737e-02 7.859398293986403e-02
            5.299810049044124e-02 -5.933725172542817e-02 4.724288928065289e-02 -6.628375006676261e-02 -7.264203060006258e-02 7.867601675603308e-02 -6.909341388393173e-01 -5.591834458416943e-01
            -6.909224268036968e-01 -5.591405673455637e-01 -7.273709706413362e-02 7.877428564403909e-02 4.903553919333390e-02 -6.465911650267622e-02 5.312767749957122e-02 -5.961844691347164e-02
            -7.268652546537957e-02 7.868027388628986e-02 -6.909156032886904e-01 -5.591398715476609e-01 5.314259014761105e-02 -5.960135795573925e-02 4.908158644409938e-02 -6.461185149191108e-02
28477064.2201834880 2.944616662490696e-02 -5.197591901202617e-02 3.517528738710379e-02 -4.676329150857265e-02 -7.718535125869074e-01 -4.432345256230896e-01 -6.390140658671883e-02 9.171004025538369e-02
            3.517527417761227e-02 -4.685881193386943e-02 2.956966655046587e-02 -5.203178494422180e-02 -6.384517625078304e-02 9.169899388535356e-02 -7.718295594624468e-01 -4.432833102745641e-01
            -7.718936023958031e-01 -4.432610511142794e-01 -6.380706134177311e-02 9.165192750246515e-02 3.147274626430013e-02 -5.067380486899781e-02 3.523759787399293e-02 -4.712156232547140e-02
            -6.390957110255066e-02 9.162597208990975e-02 -7.718827520820671e-01 -4.432823859852296e-01 3.534494004110476e-02 -4.706816821801206e-02 3.146659422144215e-02 -5.074531173276947e-02
28976647.2060050033 1.721601200119284e-02 -3.252854436561411e-02 2.219484171207302e-02 -2.911113951002927e-02 -8.328951116207401e-01 -3.148701480911890e-01 -5.213255922129838e-02 1.047009956132383e-01
            2.223554587586327e-02 -2.905318825653513e-02 1.723789141055284e-02 -3.258777890250899e-02 -5.212480185477286e-02 1.047266036716903e-01 -8.328911740485457e-01 -3.148572822493760e-01
            -8.328797993653733e-01 -3.149237621355789e-01 -5.216162234886468e-02 1.047572663340981e-01 1.920281688689308e-02 -3.168203682747708e-02 2.223874746122262e-02 -2.935866132511623e-02
            -5.209293239292270e-02 1.046679231096854e-01 -8.328881375844974e-01 -3.149363531247518e-01 2.224709743021677e-02 -2.937737046309543e-02 1.927988935052680e-02 -3.162758379760230e-02
29476230.1918265224 1.180602501123795e-02 -1.009573303602879e-02 1.580021278395555e-02 -7.965416528973472e-03 -8.717952085940852e-01 -1.778901427835181e-01 -3.665668731993906e-02 1.166705160414290e-01
            1.579244436093737e-02 -7.952568745877808e-03 1.181836662592829e-02 -1.002989714147694e-02 -3.674283848996677e-02 1.167595161161430e-01 -8.717424478080197e-01 -1.778419286400887e-01
            -8.717841865296830e-01 -1.778069711717899e-01 -3.670517734546360e-02 1.167467619462508e-01 1.381338072880195e-02 -9.547664416337922e-03 1.575761954057855e-02 -8.308279251172420e-03
            -3.670394475294793e-02 1.166544957371825e-01 -8.717170002423515e-01 -1.778464884398487e-01 1.580388619977717e-02 -8.260363365502526e-03 1.382610802111478e-02 -9.581311321422347e-03
29975813.1776480414 1.399733657890333e-02 1.300882338118660e-02 1.663107033826198e-02 1.408140463302514e-02 -8.871608007171402e-01 -3.649716011157610e-02 -1.761865600923278e-02 1.263775076031111e-01
            1.664258630559672e-02 1.407700698399470e-02 1.395676036802764e-02 1.305632872734180e-02 -1.765282583879969e-02 1.263842262736010e-01 -8.872100377795736e-01 -3.652345269963066e-02
            -8.871466717528299e-01 -3.649469596430310e-02 -1.760612465783429e-02 1.263905062611176e-01 1.586461458989000e-02 1.323517896409075e-02 1.649054285927843e-02 1.380656250778783e-02
            -1.758975055536236e-02 1.263692009042788e-01 -8.871517698097006e-01 -3.647724088317602e-02 1.650553253129340e-02 1.376360252037520e-02 1.583871004598991e-02 1.324477802500897e-02
30475396.1634695567 2.348522452144373e-02 3.392732608132173e-02 2.458631904829668e-02 3.445667422335054e-02 -8.787819115247416e-01 1.046441025235234e-01 4.570239733615185e-03 1.322573384075225e-01
            2.460117218146855e-02 3.443084451914454e-02 2.345142373167778e-02 3.403309987315935e-02 4.449853040685188e-03 1.322759946699908e-01 -8.788409428330795e-01 1.046254862106548e-01
            -8.787965735772414e-01 1.046102536655515e-01 4.514005851840933e-03 1.321733301164498e-01 2.516175544559830e-02 3.395171590957403e-02 2.444801379205210e-02 3.415972909216316e-02
            4.534612447008521e-03 1.322463683276301e-01 -8.787359504488926e-01 1.046464228085909e-01 2.437753884663126e-02 3.422216750261478e-02 2.517156416065628e-02 3.395255557692239e-02
30974979.1492910758 3.901646909522519e-02 5.079355059621540e-02 3.850090441058401e-02 5.109694529733328e-02 -8.476284937342179e-01 2.412061239017101e-01 2.858309349350536e-02 1.332023975960773e-01
            3.856610688004023e-02 5.106235351982757e-02 3.898888482446493e-02 5.071105610627712e-02 2.860898741711303e-02 1.331897632873322e-01 -8.476854249863398e-01 2.413100688705952e-01
            -8.476612307885293e-01 2.412999719706071e-01 2.859280384563894e-02 1.331537875318934e-01 4.046901636826901e-02 5.046114381498587e-02 3.836597449525481e-02 5.083886824689965e-02
            2.855809695066756e-02 1.331967217680717e-01 -8.476908391753329e-01 2.412347317736722e-01 3.837537743845569e-02 5.092460256773235e-02 4.055262754332022e-02 5.052561494738434e-02
31474562.1351125948 5.891011882207736e-02 6.147224512628974e-02 5.685675363669280e-02 6.213912365744689e-02 -7.953419589318010e-01 3.696428932953346e-01 5.300483572237098e-02 1.286608739946007e-01
            5.681368858264174e-02 6.214739995498571e-02 5.884408261331373e-02 6.146051814212808e-02 5.308869162261668e-02 1.285926127476630e-01 -7.954210590471527e-01 3.696119612270908e-01
            -7.953883346115543e-01 3.695829095083606e-01 5.309164619253721e-02 1.286421211987150e-01 6.012787439146260e-02 6.108947187755557e-02 5.658982405092224e-02 6.207773314461233e-02
            5.301354216527088e-02 1.286053830622360e-01 -7.953445276094125e-01 3.695962142346425e-01 5.666089023913204e-02 6.198837038445611e-02 6.016044696936676e-02 6.105162463376841e-02
31974145.1209341139 8.076369473580515e-02 6.534432642826185e-02 7.739798612499163e-02 6.680842186523264e-02 -7.245026161297474e-01 4.866523429744150e-01 7.621467640781646e-02 1.187224793952770e-01
            7.731030350316118e-02 6.673262497281891e-02 8.077475420896846e-02 6.532668045906302e-02 7.621235625166359e-02 1.187284570749184e-01 -7.244774041207437e-01 4.866338484050705e-01
            -7.244805898464542e-01 4.865940469236573e-01 7.626149808418141e-02 1.187662026262494e-01 8.179843855530888e-02 6.485688096219180e-02 7.720400857580891e-02 6.668790023029965e-02
            7.612573896826240e-02 1.187301448957629e-01 -7.245327006229302e-01 4.865898463251594e-01 7.724094933874849e-02 6.667073253597602e-02 8.175048891484225e-02 6.478253194047524e-02
32473728.1067556292 1.024345990332574e-01 6.234147232362151e-02 9.808246345431544e-02 6.476101150387824e-02 -6.374696579253822e-01 5.899616584319363e-01 9.671182782168160e-02 1.040839209121363e-01
            9.799757387166549e-02 6.483596107136058e-02 1.023696174057556e-01 6.233095167330120e-02 9.663023993209545e-02 1.041660503941039e-01 -6.375003214895271e-01 5.900602091706112e-01
            -6.374352680242464e-01 5.900167802297376e-01 9.667046126486965e-02 1.041442542784453e-01 1.032576787207122e-01 6.177725821771122e-02 9.778341211700417e-02 6.467457665006900e-02
            9.678421268251228e-02 1.041307730121112e-01 -6.374383600946374e-01 5.900154473052421e-01 9.782277710675508e-02 6.475318617709513e-02 1.032627439011617e-01 6.173664161503608e-02
32973311.0925771482 1.218150661780919e-01 5.290692359780659e-02 1.167734124137843e-01 5.662454297569773e-02 -5.369211501711433e-01 6.780673684207298e-01 1.134081875874522e-01 8.588930798064479e-02
            1.168249968478159e-01 5.666033461484436e-02 1.218622130122538e-01 5.283977053057157e-02 1.133492358273321e-01 8.586454921499613e-02 -5.369553507989752e-01 6.780325591728381e-01
            -5.368448292906770e-01 6.780237902135900e-01 1.133621944033219e-01 8.589771737643291e-02 1.224406197171057e-01 5.240955299032121e-02 1.166169477980487e-01 5.659722693394203e-02
            1.134282174657752e-01 8.589121215273345e-02 -5.369782119106721e-01 6.780773177849051e-01 1.165685161658297e-01 5.666332855333416e-02 1.224043956503104e-01 5.238259388347422e-02
33472894.0783986673 1.372088493346910e-01 3.821704884366378e-02 1.318868766938052e-01 4.344524059182923e-02 -4.255218307898234e-01 7.495123519688611e-01 1.256299751409144e-01 6.525961551896219e-02
            1.319946887039343e-01 4.336702249843376e-02 1.372422478583428e-01 3.823173187449904e-02 1.257688530935964e-01 6.530558516369264e-02 -4.255658683325996e-01 7.494802446552484e-01
            -4.254799739452217e-01 7.495572628215025e-01 1.257107454604324e-01 6.527466724901422e-02 1.375968033652176e-01 3.780312890894132e-02 1.317637486195390e-01 4.351303975835970e-02
            1.257114162318319e-01 6.525443781165007e-02 -4.255110506750740e-01 7.495060162789718e-01 1.318355551913488e-01 4.347251968671272e-02 1.375620806963116e-01 3.776584699359484e-02
33972477.0642201826 1.473712922894901e-01 1.986829780020550e-02 1.424014912316441e-01 2.634113006337099e-02 -3.056267780279914e-01 8.036036704032098e-01 1.337702656112478e-01 4.363779960753835e-02
            1.423061127183869e-01 2.636173284473743e-02 1.474308586416886e-01 1.979324768712161e-02 1.336879265619158e-01 4.368007927350420e-02 -3.056270215191591e-01 8.036033221115049e-01
            -3.055804510248826e-01 8.036773600169105e-01 1.338250429484746e-01 4.360361317140669e-02 1.477026164996557e-01 1.950023788944230e-02 1.422601036772088e-01 2.645542052000199e-02
            1.337262034407386e-01 4.370662610549813e-02 -3.056537233540405e-01 8.036757310937134e-01 1.422715736350846e-01 2.643550712928493e-02 1.476823398728556e-01 1.951805298900131e-02
34472060.0500417054 1.515722492749488e-01 -5.952628170141329e-04 1.470899264252964e-01 7.086720643547113e-03 -1.795786565191245e-01 8.396217747732624e-01 1.377690876167917e-01 2.201144933103077e-02
            1.471144362168444e-01 7.087332846867886e-03 1.515571484358246e-01 -6.360520782064290e-04 1.378062503471151e-01 2.201929703732437e-02 -1.795775560564426e-01 8.396300048655926e-01
            -1.795961200529033e-01 8.396972826296417e-01 1.376981953470963e-01 2.193676285529752e-02 1.517468040277262e-01 -8.109821192558588e-04 1.470392593875784e-01 7.160139671474755e-03
            1.377978471688711e-01 2.202013016860624e-02 -1.796089199771365e-01 8.396500081704630e-01 1.471205492582885e-01 7.174372935091134e-03 1.517345127692624e-01 -8.644134418418805e-04
34971643.0358632207 1.494716322955404e-01 -2.126691246480494e-02 1.459989190177337e-01 -1.267306510781263e-02 -4.965056768784008e-02 8.569976356079912e-01 1.383209666123510e-01 1.183870971240603e-03
            1.459601341788564e-01 -1.266397344503868e-02 1.495036936070676e-01 -2.129476319405163e-02 1.382857571073561e-01 1.167700031841534e-03 -4.965089937198300e-02 8.569766372420971e-01
            -4.964536429879417e-02 8.570094724049268e-01 1.383379263285632e-01 1.122229847168124e-03 1.496563684647783e-01 -2.141795375314587e-02 1.458914593598913e-01 -1.255674631000115e-02
            1.383394863678625e-01 1.152309195663391e-03 -4.963951988555001e-02 8.569946357633086e-01 1.459430486223197e-01 -1.253019694676830e-02 1.496183338992310e-01 -2.141446153461495e-02
35471226.0216847360 1.413594203426408e-01 -4.052027726774855e-02 1.388729398859506e-01 -3.130200712405871e-02 8.191510202086717e-02 8.552021054452146e-01 1.362852242207838e-01 -1.856462216054169e-02
            1.389025498756506e-01 -3.127631245648008e-02 1.413135908355526e-01 -4.044345364474991e-02 1.364010419389869e-01 -1.856399591995233e-02 8.189956687616498e-02 8.551723367818104e-01
            8.184780711833141e-02 8.551876180175041e-01 1.363709918095799e-01 -1.851699949984141e-02 1.414207455027018e-01 -4.043021016432349e-02 1.388705709906433e-01 -3.108299814897082e-02
            1.363371755293804e-01 -1.858712187940483e-02 8.186770215554851e-02 8.551716781209383e-01 1.389399628241331e-01 -3.109760514539058e-02 1.414073836240007e-01 -4.055817649038265e-02
35970809.0075062588 1.276783282321132e-01 -5.634329105074302e-02 1.265370342981082e-01 -4.702507495007216e-02 2.124531448334174e-01 8.337900935236550e-01 1.323140342748044e-01 -3.716196764847621e-02
            1.264840625989511e-01 -4.699329687226125e-02 1.276990946711690e-01 -5.640435364303480e-02 1.323206432939567e-01 -3.703492863437490e-02 2.124618235597760e-01 8.338362840570660e-01
            2.124281405753153e-01 8.338478145780885e-01 1.323157041533778e-01 -3.712717453127438e-02 1.277802612003213e-01 -5.636183525039129e-02 1.265494472881102e-01 -4.688230286782333e-02
            1.323456142311271e-01 -3.700953978883303e-02 2.124457865006016e-01 8.338627265415387e-01 1.265802189972567e-01 -4.679926228418965e-02 1.278339474807218e-01 -5.636540315587443e-02
36470391.9933277741 1.097416154364037e-01 -6.754902043506592e-02 1.097588765941003e-01 -5.827467967360173e-02 3.393054570869573e-01 7.928135269120631e-01 1.268188923506435e-01 -5.476762328054715e-02
            1.097598651213533e-01 -5.826351336526468e-02 1.096486423231924e-01 -6.753365813266476e-02 1.268275917029778e-01 -5.478702362867174e-02 3.393811254810395e-01 7.927470406465689e-01
            3.393883230574045e-01 7.928279923812463e-01 1.267884786459569e-01 -5.478488575791759e-02 1.099171204097409e-01 -6.728698260487002e-02 1.098476871216882e-01 -5.815225958188712e-02
            1.268722616521816e-01 -5.482814840386473e-02 3.393434181606622e-01 7.928563852880703e-01 1.098371564153527e-01 -5.824676266873841e-02 1.099237534705496e-01 -6.736023939871365e-02
36969974.9791492894 8.885661369001085e-02 -7.269965847915878e-02 9.005114870571858e-02 -6.396031902349114e-02 4.597393223001464e-01 7.322002644882593e-01 1.198388212765468e-01 -7.204253492487334e-02
            9.013774961279654e-02 -6.392775497615139e-02 8.889146887595330e-02 -7.273679346751419e-02 1.198787422308990e-01 -7.200062060274695e-02 4.595743695011692e-01 7.322621851360986e-01
            4.596173851513963e-01 7.322627341253933e-01 1.199402778431111e-01 -7.194556792061968e-02 8.918520903328254e-02 -7.244358165832278e-02 9.024139796603424e-02 -6.388300289310592e-02
            1.199215460019248e-01 -7.193293565448736e-02 4.597334565394626e-01 7.322504451154130e-01 9.019885255415215e-02 -6.387652032101200e-02 8.929066817002503e-02 -7.247253469401758e-02
37469557.9649708122 6.734618814195951e-02 -7.117321377679101e-02 6.938357253003796e-02 -6.326193465663574e-02 5.699807476120291e-01 6.527944408138157e-01 1.114505743573150e-01 -8.916265699981635e-02
            6.934071855212159e-02 -6.331098346776660e-02 6.729201887642480e-02 -7.121231061423876e-02 1.114256718923100e-01 -8.919501518465674e-02 5.700912469630146e-01 6.527823710869292e-01
            5.700132546725816e-01 6.527679769107704e-01 1.113892811695754e-01 -8.917655524853571e-02 6.773200166768539e-02 -7.089175073317605e-02 6.957053017008204e-02 -6.317832621831701e-02
            1.114901467502180e-01 -8.912031228858076e-02 5.699741098516269e-01 6.527740990983599e-01 6.955998743838153e-02 -6.316302430163460e-02 6.762863250024113e-02 -7.084839250101295e-02
37969140.9507923275 4.702510698715086e-02 -6.281656469800219e-02 4.966950746633061e-02 -5.588431901189318e-02 6.672579653102734e-01 5.558438608917459e-01 1.006749334469471e-01 -1.064502746296238e-01
            4.968430000990288e-02 -5.588329262631941e-02 4.700469321355613e-02 -6.284010821566834e-02 1.006454422523106e-01 -1.064763249224548e-01 6.671862514867444e-01 5.556722280061083e-01
            6.671724750087702e-01 5.557835654159688e-01 1.006943983758306e-01 -1.063388602169405e-01 4.764831757622276e-02 -6.249291121985203e-02 4.988898106610556e-02 -5.590920492537947e-02
            1.006195678290493e-01 -1.065231669184928e-01 6.671141952501175e-01 5.557598207302336e-01 4.983105229078587e-02 -5.584131329104620e-02 4.762895091210732e-02 -6.248766820246697e-02
38468723.9366138428 3.025802936169224e-02 -4.827444863125046e-02 3.320483670745070e-02 -4.243658342214655e-02 7.477684215863942e-01 4.433477905130789e-01 8.692846302006067e-02 -1.235505383320311e-01
            3.318607806419178e-02 -4.251848067207513e-02 3.029164440479954e-02 -4.832889966173519e-02 8.697269488277537e-02 -1.236300652962635e-01 7.477449007070400e-01 4.433984094162050e-01
            7.477755532747695e-01 4.433970114785517e-01 8.696149279033848e-02 -1.235723871140001e-01 3.094379426831798e-02 -4.793907313105678e-02 3.337157434626016e-02 -4.253483414997501e-02
            8.700871166349068e-02 -1.235777018772416e-01 7.477653016350599e-01 4.433754614614882e-01 3.334235659982459e-02 -4.247297172046125e-02 3.095903301269133e-02 -4.802280244787206e-02
38968306.9224353656 1.901461016979537e-02 -2.900314642987609e-02 2.194769989847043e-02 -2.428444595064616e-02 8.088523099641638e-01 3.186860265274897e-01 6.965408175798597e-02 -1.398036003114327e-01
            2.186302343887898e-02 -2.434066961111540e-02 1.902166006628385e-02 -2.885278053590180e-02 6.965849629320872e-02 -1.398903774105666e-01 8.089562729588696e-01 3.186041140245013e-01
            8.089183892036362e-01 3.186280609762415e-01 6.961894476443287e-02 -1.399031912944408e-01 1.980143429315174e-02 -2.870757955871365e-02 2.204967990959660e-02 -2.449352371396198e-02
            6.965632473538971e-02 -1.398948193331678e-01 8.089930844646708e-01 3.186155070342935e-01 2.210021072021239e-02 -2.437701430268579e-02 1.977618503703904e-02 -2.873284088303327e-02
39467889.9082568809 1.455147031978756e-02 -6.860494252022359e-03 1.696620380755195e-02 -3.426092323626372e-03 8.483207668087760e-01 1.853128017205828e-01 4.829410805057123e-02 -1.541011763743869e-01
            1.704106806477336e-02 -3.538427912156769e-03 1.449624701502382e-02 -6.886768971068009e-03 4.832990082955280e-02 -1.540721771418652e-01 8.483477307398400e-01 1.853693945616817e-01
            8.483401693673189e-01 1.853227956188553e-01 4.829049244047767e-02 -1.540371682663176e-01 1.550290161278062e-02 -6.811496738740114e-03 1.716432072205494e-02 -3.597736216583206e-03
            4.826187525735886e-02 -1.541372674030651e-01 8.483955014882705e-01 1.853650250974661e-01 1.716515289395074e-02 -3.587619947146953e-03 1.548725691125035e-02 -6.795846468356327e-03
39967472.8940783963 1.738069983539025e-02 1.530561205361133e-02 1.920210911120126e-02 1.791123715274753e-02 8.650215915489402e-01 4.769349191595949e-02 2.300210417678087e-02 -1.647208638576320e-01
            1.927714905290081e-02 1.791540088173058e-02 1.750521619204125e-02 1.524830740336232e-02 2.301599557078047e-02 -1.647404329702630e-01 8.650085499126493e-01 4.773772790677820e-02
            8.650798660802930e-01 4.769797137553328e-02 2.305774276963733e-02 -1.646949666058524e-01 1.858869155610492e-02 1.529814969402276e-02 1.944809576534285e-02 1.773661276214937e-02
            2.306006594261164e-02 -1.647392928828400e-01 8.649928487417783e-01 4.766874764830142e-02 1.935364143753932e-02 1.771033076435974e-02 1.847124709540856e-02 1.520993096841779e-02
40467055.8798999190 2.737807441445335e-02 3.525162120950542e-02 2.828660521321577e-02 3.723707460727359e-02 8.585733092485034e-01 -8.995635448154279e-02 -5.224266210352447e-03 -1.705989965306177e-01
            2.824395005288292e-02 3.722086459233973e-02 2.740288249250783e-02 3.523518928776414e-02 -5.256413411834571e-03 -1.706395082223887e-01 8.585788083719146e-01 -8.991082016416130e-02
            8.585802419777817e-01 -8.985030351740017e-02 -5.261924572040428e-03 -1.706628717201451e-01 2.859318897976263e-02 3.502376643423490e-02 2.830424377604663e-02 3.701186141289649e-02
            -5.250957239137391e-03 -1.706272568580391e-01 8.586297229068285e-01 -8.985519056983755e-02 2.839685435990586e-02 3.702561942648680e-02 2.848223494457538e-02 3.503060411465349e-02
40966638.8657214344 4.308015880706571e-02 5.085310523917896e-02 4.286698196753079e-02 5.249363858809506e-02 8.299573736241699e-01 -2.232887947267759e-01 -3.522223082881557e-02 -1.707324382094487e-01
            4.285163415927436e-02 5.250021339593448e-02 4.291640974966191e-02 5.082829626236128e-02 -3.520971262835493e-02 -1.706720460489143e-01 8.300395905588213e-01 -2.232282260657648e-01
            8.300384348932822e-01 -2.232668993949351e-01 -3.526420289996825e-02 -1.706738856524854e-01 4.419770364486326e-02 5.044226642602597e-02 4.292939597382943e-02 5.226133402935306e-02
            -3.517585538594453e-02 -1.706329468520169e-01 8.300407704995715e-01 -2.232173550079660e-01 4.299729549877892e-02 5.217496852235584e-02 4.411289077054722e-02 5.035417726412257e-02
41466221.8515429497 6.258908239117213e-02 6.052639602505816e-02 6.147808746385940e-02 6.210191248588450e-02 7.810190940048704e-01 -3.489051442554905e-01 -6.521509179223853e-02 -1.644482946162678e-01
            6.141864379249912e-02 6.215741859195070e-02 6.254338872405203e-02 6.054273224102896e-02 -6.522254700401253e-02 -1.643341445403869e-01 7.809859513863341e-01 -3.488778751774340e-01
            7.809801302103611e-01 -3.488876257248472e-01 -6.525876627458746e-02 -1.643863922177264e-01 6.381073312285458e-02 5.986903643390170e-02 6.137928452511736e-02 6.183867785403588e-02
            -6.524737035158097e-02 -1.643731543660803e-01 7.809476610798342e-01 -3.489061159725227e-01 6.146675978577006e-02 6.191736166489843e-02 6.380076142118395e-02 5.980863364794410e-02
41965804.8373644724 8.387530144109927e-02 6.352133610476361e-02 8.174750752718392e-02 6.538132082090063e-02 7.136184373468356e-01 -4.637790703150472e-01 -9.345543925409462e-02 -1.519454052160491e-01
            8.173801552997183e-02 6.537600290139915e-02 8.382151918694888e-02 6.352011110959191e-02 -9.353734148696048e-02 -1.519152905116364e-01 7.136607092801937e-01 -4.638777765980832e-01
            7.136910647522356e-01 -4.637822398946569e-01 -9.352586305775661e-02 -1.519451402354132e-01 8.496595570439999e-02 6.267979131242124e-02 8.156380264871016e-02 6.500392903567057e-02
            -9.353959297518294e-02 -1.519733444006525e-01 7.136931704455572e-01 -4.638221287496669e-01 8.168691291477144e-02 6.504136566574334e-02 8.497417224453878e-02 6.258496097488569e-02
42465387.8231859878 1.046503580535427e-01 5.974002818402285e-02 1.017439877245509e-01 6.225752838065351e-02 6.305527028958445e-01 -5.657410913128411e-01 -1.185653555725403e-01 -1.341610608046473e-01
            1.016253541185166e-01 6.221378413266766e-02 1.045821889058695e-01 5.977036887418357e-02 -1.186596517770080e-01 -1.341817475246126e-01 6.304742010690131e-01 -5.657638105419546e-01
            6.305316476126788e-01 -5.658263175382089e-01 -1.185740203282524e-01 -1.341744135128565e-01 1.057610139846026e-01 5.858088785366978e-02 1.015919518698811e-01 6.182527905762945e-02
            -1.185552268883774e-01 -1.340860021001714e-01 6.305809246881741e-01 -5.658439664904376e-01 1.015682857892239e-01 6.183923011032541e-02 1.057212544922803e-01 5.866298989439692e-02
42964970.8090075105 1.230074467392965e-01 5.000412190234783e-02 1.195060244046882e-01 5.314956604958773e-02 5.340842859682778e-01 -6.530961709070613e-01 -1.393838368064786e-01 -1.122364917452006e-01
            1.194584886797956e-01 5.313151251185454e-02 1.230469108414711e-01 5.000376904177443e-02 -1.394848542872151e-01 -1.121723525679205e-01 5.341273813703339e-01 -6.531660364468919e-01
            5.341471566468670e-01 -6.531265340418299e-01 -1.393877321345369e-01 -1.122037146704780e-01 1.239235223706495e-01 4.856324455087309e-02 1.193616422919918e-01 5.278354677254050e-02
            -1.394043846723203e-01 -1.122910727055030e-01 5.341231458871499e-01 -6.531290953514323e-01 1.193437430453563e-01 5.284842380655676e-02 1.239760198651914e-01 4.865224063925542e-02
43464553.7948290259 1.374206185202285e-01 3.526794056620990e-02 1.335795216528842e-01 3.925668391085139e-02 4.268174961467307e-01 -7.247302116895493e-01 -1.553800557495509e-01 -8.751267628777959e-02
            1.334702174472205e-01 3.934570215227680e-02 1.373977249570083e-01 3.529209370059475e-02 -1.553476649739667e-01 -8.750551556453694e-02 4.267538125232715e-01 -7.247881381725667e-01
            4.267603703435131e-01 -7.247601541471551e-01 -1.553326392635289e-01 -8.749519714065687e-02 1.382591710112364e-01 3.368469086896927e-02 1.331337076878488e-01 3.895400588660282e-02
            -1.553303276457854e-01 -8.745271603628314e-02 4.267785447582302e-01 -7.248356213624132e-01 1.332692906942556e-01 3.890280070216513e-02 1.382003616556912e-01 3.366179175275175e-02
43964136.7806505412 1.465693579081605e-01 1.720318681012626e-02 1.425592324813011e-01 2.205355856223528e-02 3.107237565790924e-01 -7.795749447774855e-01 -1.664115930379985e-01 -6.124800712748064e-02
            1.426482359662739e-01 2.206897731694148e-02 1.465589183713773e-01 1.721594163067861e-02 -1.663585523087738e-01 -6.114424471447232e-02 3.107682651970568e-01 -7.796452334954241e-01
            3.107260463295373e-01 -7.795900138118265e-01 -1.663249565124890e-01 -6.125367022949912e-02 1.471937257243253e-01 1.529394302431913e-02 1.423290497239900e-01 2.179868233042304e-02
            -1.663993307738453e-01 -6.111888038215442e-02 3.108335263574449e-01 -7.796283108921018e-01 1.422533917416023e-01 2.167644891378059e-02 1.470652237422326e-01 1.530264831963757e-02
44463719.7664720640 1.498567577554812e-01 -2.656830203954359e-03 1.460791159629836e-01 2.975905519374289e-03 1.883219450073193e-01 -8.169793607282969e-01 -1.727015381656516e-01 -3.449402148635893e-02
            1.460574952816527e-01 2.905623276153349e-03 1.498951287013108e-01 -2.741570959281071e-03 -1.725840019467942e-01 -3.452220001596094e-02 1.882942933231182e-01 -8.170211064455196e-01
            1.883406816396006e-01 -8.169909528483309e-01 -1.726573242025914e-01 -3.449787101810278e-02 1.503170628617632e-01 -4.772579881545843e-03 1.456606661134788e-01 2.673436795051032e-03
            -1.726169469232852e-01 -3.452385351413954e-02 1.882712688790513e-01 -8.169808933272601e-01 1.457125910454397e-01 2.687026868871201e-03 1.502075242849065e-01 -4.751679107652171e-03
44963302.7522935793 1.472944723434323e-01 -2.259284556410000e-02 1.437525152234258e-01 -1.633621629069774e-02 6.154066298717898e-02 -8.361569071362970e-01 -1.748403569615060e-01 -8.287345452588035e-03
            1.437494840173127e-01 -1.636828674434518e-02 1.471581217234100e-01 -2.259020837079208e-02 -1.748929007142044e-01 -8.321470265942439e-03 6.161962831655127e-02 -8.362038704075270e-01
            6.160900638589518e-02 -8.361457206338301e-01 -1.748812977835033e-01 -8.319119620068599e-03 1.471691077994369e-01 -2.489072440467972e-02 1.433721177635514e-01 -1.657956150173184e-02
            -1.749089330266690e-01 -8.274942331362308e-03 6.158599954110421e-02 -8.361758812377224e-01 1.432958722521936e-01 -1.651839376394582e-02 1.471772732137286e-01 -2.486293748332633e-02
45462885.7381150946 1.385881647140270e-01 -4.080475908186752e-02 1.357973136753431e-01 -3.400222188915152e-02 -6.702515088270714e-02 -8.365463324471095e-01 -1.736263745664814e-01 1.705778518359547e-02
            1.357835674416374e-01 -3.396851130261621e-02 1.386199226362747e-01 -4.086385110397979e-02 -1.737412302197307e-01 1.713761266218318e-02 -6.708950808364704e-02 -8.365929856405169e-01
            -6.705894726379431e-02 -8.365520159502515e-01 -1.737417919929901e-01 1.706733485803523e-02 1.382334004370322e-01 -4.324899330105634e-02 1.352174378940322e-01 -3.415305127753223e-02
            -1.736906918446958e-01 1.708945567208621e-02 -6.714429404339552e-02 -8.365384914139045e-01 1.352265148383643e-01 -3.415889602531013e-02 1.381924985280419e-01 -4.321577388426450e-02
45962468.7239366174 1.248547829263254e-01 -5.567733315105800e-02 1.226455118624246e-01 -4.862196912106965e-02 -1.951815487860587e-01 -8.177186469540851e-01 -1.696254833904497e-01 4.136145611451221e-02
            1.227425303641995e-01 -4.855007119930065e-02 1.248388956686730e-01 -5.566125479523167e-02 -1.696876004310014e-01 4.146121762126942e-02 -1.952330413474232e-01 -8.177567417468837e-01
            -1.951608272550732e-01 -8.177683980382470e-01 -1.696069219780501e-01 4.146258261491138e-02 1.240440203439868e-01 -5.816921717502840e-02 1.220886242378366e-01 -4.875148934383362e-02
            -1.696562945557877e-01 4.142397134750420e-02 -1.951577264376602e-01 -8.177732011974457e-01 1.220478942175185e-01 -4.872375010982780e-02 1.240704357191238e-01 -5.821573240032746e-02
46462051.7097581327 1.072234409830910e-01 -6.567574097912260e-02 1.057061625990547e-01 -5.869145193262454e-02 -3.200456456140806e-01 -7.794212185551370e-01 -1.631817399334968e-01 6.495189663028292e-02
            1.057157556004078e-01 -5.874464506291645e-02 1.070999531641668e-01 -6.567614266752930e-02 -1.632313433180702e-01 6.491361882795244e-02 -3.200513274056060e-01 -7.795339718524474e-01
            -3.200947849210295e-01 -7.795490301734298e-01 -1.631874427744482e-01 6.495736387824798e-02 1.058063631386505e-01 -6.823795043684960e-02 1.050940056092935e-01 -5.872768285446928e-02
            -1.631640511189500e-01 6.498866290729594e-02 -3.200657970148200e-01 -7.794614101919412e-01 1.050704046890160e-01 -5.868334851783785e-02 1.059468562051587e-01 -6.825974769097051e-02
46961634.6955796480 8.693363754332951e-02 -6.990545592981935e-02 8.610189702471700e-02 -6.300090238326087e-02 -4.387180299827682e-01 -7.217518739038085e-01 -1.543972533561717e-01 8.783164400637852e-02
            8.609800046596387e-02 -6.297758284291974e-02 8.697817839450310e-02 -6.981899193546502e-02 -1.544062401792266e-01 8.797563553833224e-02 -4.387321596701671e-01 -7.218488431326396e-01
            -4.387361769252406e-01 -7.218378174190746e-01 -1.543321848110112e-01 8.790411122006395e-02 8.523723027573982e-02 -7.233524143069744e-02 8.548082898064575e-02 -6.292243010195002e-02
            -1.543793080818532e-01 8.795050058449345e-02 -4.386778113853367e-01 -7.217924351357541e-01 8.551993446077277e-02 -6.289334202974789e-02 8.526232654848284e-02 -7.223682708612331e-02
47461217.6814011708 6.628125243266174e-02 -6.751791923809283e-02 6.593069215097946e-02 -6.103555110033655e-02 -5.477928112090609e-01 -6.454538704487901e-01 -1.430103008977756e-01 1.104328185878795e-01
            6.601919276837945e-02 -6.107454921798133e-02 6.626825645686441e-02 -6.746138528592258e-02 -1.430408358938703e-01 1.104844103266730e-01 -5.477831392725240e-01 -6.454404945203908e-01
            -5.477809473963463e-01 -6.453836742951319e-01 -1.429474354262088e-01 1.105037459658027e-01 6.404037031087463e-02 -6.972016282391041e-02 6.531337243684780e-02 -6.081263909336119e-02
            -1.429451022863747e-01 1.104320593435500e-01 -5.476992257256874e-01 -6.453762290407333e-01 6.537827607204277e-02 -6.085597349388802e-02 6.418888261469727e-02 -6.981148453796049e-02
47960800.6672226861 4.730248012074634e-02 -5.858441650700782e-02 4.717637095057528e-02 -5.275883966150481e-02 -6.439433037680412e-01 -5.517359920432230e-01 -1.283998230745790e-01 1.325936928982740e-01
            4.730472079992142e-02 -5.270886998640149e-02 4.727567097545173e-02 -5.863599242368904e-02 -1.283618200185503e-01 1.326903770914211e-01 -6.439341483127323e-01 -5.516633047521793e-01
            -6.439037595716719e-01 -5.517375948926444e-01 -1.283811124970696e-01 1.325609214693750e-01 4.451930406984542e-02 -6.061636643398270e-02 4.658152854196395e-02 -5.236187165412399e-02
            -1.283670911449475e-01 1.325816581523386e-01 -6.439335285524137e-01 -5.517811736673776e-01 4.659110433996498e-02 -5.240407298434189e-02 4.460297701650679e-02 -6.071262259515398e-02
48460383.6530442014 3.191688256368550e-02 -4.392081701790351e-02 3.198639800736239e-02 -3.873325514432348e-02 -7.239732046624558e-01 -4.427946453822676e-01 -1.101070543566639e-01 1.538780346809631e-01
            3.199259431824296e-02 -3.866212286330515e-02 3.189787055163665e-02 -4.399312295154843e-02 -1.100948338767816e-01 1.538990046798029e-01 -7.239916499323290e-01 -4.427912096694720e-01
            -7.240219718884574e-01 -4.428314743369640e-01 -1.101196965620944e-01 1.539165321034832e-01 2.876796194060238e-02 -4.564283179846674e-02 3.129683506857131e-02 -3.813127244494539e-02
            -1.101081941560297e-01 1.538764630392885e-01 -7.238955950898176e-01 -4.428452713613227e-01 3.138867508506453e-02 -3.818886492097522e-02 2.872730716484270e-02 -4.558673420546201e-02
48959966.6388657242 2.211997207536839e-02 -2.499447248161133e-02 2.201263055428574e-02 -2.034877076199353e-02 -7.849554150834842e-01 -3.216993701797882e-01 -8.747620373997998e-02 1.732987907904408e-01
            2.204173756812743e-02 -2.036835319710510e-02 2.215104446341899e-02 -2.497304651850510e-02 -8.748583379507836e-02 1.733643207672321e-01 -7.849682608911143e-01 -3.217672269072895e-01
            -7.850526385407437e-01 -3.217629087302427e-01 -8.744344298220544e-02 1.733257921957517e-01 1.853628999572435e-02 -2.625069229002383e-02 2.145841670034450e-02 -1.968860840271090e-02
            -8.744654873090869e-02 1.733709424512672e-01 -7.850230899805595e-01 -3.217444860154572e-01 2.142148319950798e-02 -1.962375792048962e-02 1.858250295972100e-02 -2.618922012038090e-02
49459549.6246872395 1.901505732569808e-02 -3.634475448222786e-03 1.863458694811935e-02 3.387471794232687e-04 -8.249419788378094e-01 -1.921830778610281e-01 -6.042058584298712e-02 1.897928647561752e-01
            1.863441496137265e-02 3.475920017758462e-04 1.903800865382429e-02 -3.798526308740017e-03 -6.038830880097564e-02 1.897303081797593e-01 -8.249557983984623e-01 -1.921458281585329e-01
            -8.249386672106183e-01 -1.921289005894440e-01 -6.038857093453311e-02 1.898090405395801e-01 1.507854680701656e-02 -4.477030205668324e-03 1.809913889345179e-02 1.123698297878674e-03
            -6.025609702023815e-02 1.898050594486148e-01 -8.249876547231864e-01 -1.921245744897944e-01 1.806515407543468e-02 1.082438981130754e-03 1.512331307655660e-02 -4.447847628385820e-03
49959132.6105087548 2.292015098644094e-02 1.723456934284631e-02 2.201317506755017e-02 2.089101723258038e-02 -8.427360641137617e-01 -5.822668970550329e-02 -2.933299035569584e-02 2.017442932242993e-01
            2.204338268567955e-02 2.089111882490696e-02 2.301593028555820e-02 1.720297192466491e-02 -2.923898028153192e-02 2.017187268212257e-01 -8.427550646838979e-01 -5.828195416752420e-02
            -8.426963623568442e-01 -5.826059492848068e-02 -2.928149823100979e-02 2.016885945506922e-01 1.885541399558238e-02 1.713809101600558e-02 2.165123723102502e-02 2.179525112408550e-02
            -2.923739010397267e-02 2.016969913140312e-01 -8.427241794743090e-01 -5.829571969155844e-02 2.170292836186073e-02 2.174788673044003e-02 1.892681604208570e-02 1.713750277278071e-02
50458715.5963302776 3.353390501358326e-02 3.564186184430540e-02 3.193305653272804e-02 3.912814566180455e-02 -8.381745490565403e-01 7.573424102006565e-02 4.924950054042829e-03 2.078089732011839e-01
            3.196294526919028e-02 3.903403022244138e-02 3.345925160653851e-02 3.575652562291452e-02 4.925533145933846e-03 2.077472924058024e-01 -8.381589864039315e-01 7.575934197135215e-02
            -8.381495550833884e-01 7.572649755913709e-02 4.892837785376413e-03 2.077779870560248e-01 2.930793613966199e-02 3.623967248590756e-02 3.187512071435524e-02 4.006988890375323e-02
            4.973222540904502e-03 2.077389289521275e-01 -8.381707303028270e-01 7.568029447518801e-02 3.177114189152257e-02 4.003110933683782e-02 2.938849873526530e-02 3.619150955730845e-02
50958298.5821517929 4.929101073353657e-02 4.965208750395832e-02 4.702084955716337e-02 5.308139390766450e-02 -8.120886956700788e-01 2.058286060894904e-01 4.059157410649973e-02 2.070171238869828e-01
            4.699296369437013e-02 5.302337069748892e-02 4.928648426997877e-02 4.958767976051440e-02 4.050829759692701e-02 2.069924284468058e-01 -8.120633886930926e-01 2.058368517246830e-01
            -8.120538267582014e-01 2.059424159140223e-01 4.062476574903963e-02 2.069711177420121e-01 4.516476902995947e-02 5.074524951537334e-02 4.707787378589175e-02 5.408276370377097e-02
            4.061440751155725e-02 2.069523578894312e-01 -8.121345642286402e-01 2.058757602599939e-01 4.697662855847131e-02 5.412003392072235e-02 4.522323954450921e-02 5.082812031161663e-02
51457881.5679733157 6.847220810144501e-02 5.766242111243297e-02 6.552920608011852e-02 6.131268776365670e-02 -7.660292085707545e-01 3.287231360247372e-01 7.595256884429030e-02 1.990345136355186e-01
            6.546194203876450e-02 6.122969655732988e-02 6.850968480553241e-02 5.763438905327856e-02 7.600257044092300e-02 1.991320011946940e-01 -7.661594806962042e-01 3.286667222853186e-01
            -7.660647929449481e-01 3.286669738096040e-01 7.601515460216793e-02 1.991136727250309e-01 6.459730395143205e-02 5.938597666872377e-02 6.575417045095840e-02 6.235334489848321e-02
            7.601217553862562e-02 1.991545857663511e-01 -7.660802314879935e-01 3.287378367963288e-01 6.572788158736974e-02 6.232953986394922e-02 6.465412913943862e-02 5.945661564983864e-02
51957464.5537948310 8.898623842670890e-02 5.918236600788086e-02 8.535970488441094e-02 6.320359844822235e-02 -7.023936122579588e-01 4.413935751031797e-01 1.092623941436222e-01 1.844485454148515e-01
            8.539115372395584e-02 6.331599990214418e-02 8.896608462320604e-02 5.917371760620494e-02 1.091812637000146e-01 1.844456496862949e-01 -7.023906629984475e-01 4.413934243949986e-01
            -7.024247029923777e-01 4.413418884295930e-01 1.092169257525394e-01 1.844645154743272e-01 8.532989501081702e-02 6.145935983116064e-02 8.584187101120112e-02 6.417897404592586e-02
            1.092984132349739e-01 1.845324583557303e-01 -7.024131219553672e-01 4.415087478239821e-01 8.585844706987455e-02 6.427348217969557e-02 8.531474174549489e-02 6.149009661483378e-02
52457047.5396163464 1.087283324252949e-01 5.419468739686657e-02 1.046335810337155e-01 5.903872171847951e-02 -6.231180139933935e-01 5.420036589015123e-01 1.389471040842005e-01 1.638460473424052e-01
            1.045119879531220e-01 5.902243616200745e-02 1.086104548711441e-01 5.424711047402687e-02 1.388300167896398e-01 1.638215691546197e-01 -6.231928700306544e-01 5.419272384942780e-01
            -6.231680440398446e-01 5.419891222259002e-01 1.388709803821243e-01 1.638814613394451e-01 1.054338673721966e-01 5.715350247546928e-02 1.052523527363481e-01 5.975670579340112e-02
            1.388989732177094e-01 1.638753178993698e-01 -6.231469290750383e-01 5.420266044287297e-01 1.051958180761826e-01 5.986183092658577e-02 1.053894579122896e-01 5.716442122186684e-02
52956630.5254378691 1.256886133731811e-01 4.370868379542527e-02 1.212601555506115e-01 4.920287525200149e-02 -5.306836503827360e-01 6.286890244644953e-01 1.637612175912072e-01 1.384563168723126e-01
            1.211734365461122e-01 4.918871092236266e-02 1.256387934092817e-01 4.377037723044143e-02 1.637330649920974e-01 1.384353681059839e-01 -5.306309563573554e-01 6.286115268075088e-01
            -5.307154143146106e-01 6.286430423707257e-01 1.637927360820937e-01 1.384973905531206e-01 1.229168915397047e-01 4.701176790175351e-02 1.221120993147397e-01 4.990550560859740e-02
            1.637502755561862e-01 1.384842802648580e-01 -5.307100839543616e-01 6.286558642885290e-01 1.220581896482369e-01 4.991329795855363e-02 1.228708573101728e-01 4.695376521381416e-02
53456213.5112593845 1.385890679375779e-01 2.856491973317653e-02 1.340700815956935e-01 3.507212583537236e-02 -4.272835704961543e-01 7.002090483232224e-01 1.833191272948896e-01 1.098789866562321e-01
            1.341271109230843e-01 3.492509205267706e-02 1.385190092425853e-01 2.857397687053645e-02 1.832968534676788e-01 1.097769542410994e-01 -4.272861885723335e-01 7.001619166394683e-01
            -4.272646450748397e-01 7.001797178446807e-01 1.831940581138890e-01 1.098288570045393e-01 1.362238464094158e-01 3.216539471852282e-02 1.350006100895580e-01 3.546869406832047e-02
            1.832496563700035e-01 1.098148359337698e-01 -4.272805557376962e-01 7.001828458644103e-01 1.350176083328677e-01 3.545249145069483e-02 1.362288523192680e-01 3.214824829465959e-02
53955796.4970808998 1.461476048237447e-01 1.044086944848846e-02 1.418399465039798e-01 1.767203019877501e-02 -3.151623857117256e-01 7.556688560980418e-01 1.973338196872052e-01 7.917285018996928e-02
            1.418441022476337e-01 1.768353236199251e-02 1.461302954634016e-01 1.044075507099365e-02 1.972579775191026e-01 7.918662319011689e-02 -3.151467438307099e-01 7.557167127581192e-01
            -3.150566699642793e-01 7.556648456230990e-01 1.974152203557508e-01 7.928350257382318e-02 1.444588528453765e-01 1.425243567666879e-02 1.429530659172259e-01 1.787569499037539e-02
            1.973714518564369e-01 7.920870036797623e-02 -3.150721273867146e-01 7.557548254119646e-01 1.429108909586971e-01 1.797685159817375e-02 1.444262188939213e-01 1.429702866370168e-02
54455379.4829024225 1.480793342177724e-01 -9.119985689117619e-03 1.441116766886277e-01 -1.046919672551626e-03 -1.962154639776429e-01 7.942766060034021e-01 2.061144482213532e-01 4.780567163446004e-02
            1.441104436968684e-01 -1.068208398586228e-03 1.480966904103408e-01 -9.096410861377973e-03 2.060951574065844e-01 4.769336875313877e-02 -1.961752755598140e-01 7.943325145215674e-01
            -1.961701340459645e-01 7.942639181946555e-01 2.061153937961891e-01 4.774275801413893e-02 1.469165926216850e-01 -5.221805827595657e-03 1.452018368080518e-01 -1.055000504265716e-03
            2.061314192469887e-01 4.768923902394273e-02 -1.962490459635081e-01 7.943027102214248e-01 1.452148036872950e-01 -1.064178716844825e-03 1.470059629434209e-01 -5.128814066792484e-03
54954962.4687239379 1.440726794569131e-01 -2.837284448494555e-02 1.407058784453369e-01 -1.960970644188714e-02 -7.276442984886203e-02 8.151219118594144e-01 2.101073353855055e-01 1.627559215383046e-02
            1.407529658047949e-01 -1.961695305618452e-02 1.441137723096982e-01 -2.829542724573403e-02 2.101328909170571e-01 1.628840361560057e-02 -7.277855497857505e-02 8.151204644914610e-01
            -7.277270340681793e-02 8.150660964049808e-01 2.100777660841411e-01 1.632588673235533e-02 1.434324961944885e-01 -2.446537559073865e-02 1.417612118735043e-01 -1.977070396498630e-02
            2.100747472154804e-01 1.630945902113610e-02 -7.272145368743804e-02 8.150660953080529e-01 1.417223262468185e-01 -1.983399796849448e-02 1.434452999452541e-01 -2.446242939196757e-02
55454545.4545454532 1.345077572958613e-01 -4.557609514942711e-02 1.318486248194172e-01 -3.650101464870967e-02 5.301093485352050e-02 8.175528126025065e-01 2.098604493753151e-01 -1.453167853531123e-02
            1.318714770188266e-01 -3.638212968678370e-02 1.343982552853687e-01 -4.545429204971219e-02 2.098877868613229e-01 -1.456549834448606e-02 5.300619290772992e-02 8.175661603273168e-01
            5.301764485556631e-02 8.176119755899851e-01 2.099040025989350e-01 -1.449218736723636e-02 1.344029467929582e-01 -4.178823311902469e-02 1.327930473384703e-01 -3.667420436159369e-02
            2.098603070668741e-01 -1.446830691138407e-02 5.305001394548242e-02 8.175854430180296e-01 1.327696889393711e-01 -3.682454112216781e-02 1.343708215888138e-01 -4.182284941318116e-02
55954128.4403669760 1.198956703144414e-01 -5.913267098653733e-02 1.182835674721045e-01 -4.979206578922258e-02 1.786579691827565e-01 8.011191354368268e-01 2.060898427540333e-01 -4.456749406411428e-02
            1.182823262416060e-01 -4.977724835184708e-02 1.199197611267312e-01 -5.921287824604780e-02 2.059674322572866e-01 -4.455270725255618e-02 1.787092873603127e-01 8.011403281383399e-01
            1.786287324124031e-01 8.011482046629369e-01 2.060492133173401e-01 -4.456396569415902e-02 1.203531756340707e-01 -5.570790965491912e-02 1.190921850628637e-01 -5.036779363219610e-02
            2.060251843007188e-01 -4.453712804047981e-02 1.787237928895540e-01 8.011091116785453e-01 1.190615795633849e-01 -5.037481110301396e-02 1.203468021215533e-01 -5.569678285137900e-02
56453711.4261884913 1.018470644608707e-01 -6.790821022846689e-02 1.010741943452864e-01 -5.846818331823320e-02 3.013893122429327e-01 7.654458632607837e-01 1.987651995302516e-01 -7.384963050627716e-02
            1.010632253869195e-01 -5.851955104109929e-02 1.019628120649253e-01 -6.793271132428753e-02 1.987984887608585e-01 -7.382067005102878e-02 3.014454318848796e-01 7.654092489958205e-01
            3.013834696632134e-01 7.653534120039635e-01 1.988543426493160e-01 -7.381623238809415e-02 1.026210067835279e-01 -6.482452664718520e-02 1.016438315455976e-01 -5.923612167127434e-02
            1.988224011035288e-01 -7.375427470447261e-02 3.013831912929456e-01 7.654086643334053e-01 1.016005784168598e-01 -5.918532680929230e-02 1.026095053266082e-01 -6.477466604306852e-02
56953294.4120100066 8.168851848222283e-02 -7.071052084127305e-02 8.165674831680769e-02 -6.150856167516862e-02 4.181766770615160e-01 7.105861570037358e-01 1.882206244449903e-01 -1.023624479722858e-01
            8.171655676034817e-02 -6.148466120600642e-02 8.175491724307649e-02 -7.059046369401768e-02 1.882817034806282e-01 -1.023937273192995e-01 4.181596449808023e-01 7.106748248530929e-01
            4.181817255303183e-01 7.106401912095969e-01 1.882621720747083e-01 -1.023892810907576e-01 8.281136865097924e-02 -6.786007182714246e-02 8.203544902572911e-02 -6.223065996120543e-02
            1.882480073519415e-01 -1.024127171726273e-01 4.181703815235154e-01 7.105638485470636e-01 8.206194499071028e-02 -6.225306973277035e-02 8.272909690056719e-02 -6.791221463372987e-02
57452877.3978315294 6.148526896256470e-02 -6.690228886367713e-02 6.221020760681880e-02 -5.817572884214362e-02 5.257412326739335e-01 6.372548124337986e-01 1.741873886201545e-01 -1.302427914309476e-01
            6.225079709756361e-02 -5.818505766916761e-02 6.156121063051982e-02 -6.694129897498666e-02 1.740790260346388e-01 -1.302027408392925e-01 5.257974557944424e-01 6.372709150022638e-01
            5.257857220344200e-01 6.372075201313104e-01 1.741726123021545e-01 -1.302665794023973e-01 6.259799389041872e-02 -6.467489091281374e-02 6.234180556631787e-02 -5.907504115317718e-02
            1.741076090173500e-01 -1.302705382351661e-01 5.258181282959457e-01 6.372102978521650e-01 6.235418044322814e-02 -5.905751416449143e-02 6.276399280514892e-02 -6.470977934820601e-02
57952460.3836530447 4.326515594841797e-02 -5.693838726830763e-02 4.440421296275495e-02 -4.880349084688872e-02 6.208472652128528e-01 5.467435224725828e-01 1.560209428828502e-01 -1.572261716361071e-01
            4.444955002438355e-02 -4.884645766004383e-02 4.333450897257732e-02 -5.699894755286553e-02 1.560135304245131e-01 -1.572430057488247e-01 6.207542370119146e-01 5.466545166219795e-01
            6.207914696013387e-01 5.468053565532959e-01 1.559683426174561e-01 -1.572505144034114e-01 4.442278828245365e-02 -5.522344507851740e-02 4.438039820668033e-02 -4.971168608942143e-02
            1.559583904059330e-01 -1.571302600671959e-01 6.207975566931802e-01 5.467730622165266e-01 4.439619098960723e-02 -4.963694971446309e-02 4.442418303417119e-02 -5.514157343873804e-02
58452043.3694745600 2.905006162566076e-02 -4.156946437634530e-02 3.055197182839542e-02 -3.410576842042088e-02 7.000989987023962e-01 4.413414497684506e-01 1.331628652148036e-01 -1.825453019756020e-01
            3.057045409950033e-02 -3.418639152208766e-02 2.901988259363820e-02 -4.158541803588232e-02 1.332432563396520e-01 -1.825772934812535e-01 7.000444255733317e-01 4.413282089191316e-01
            7.001396454755194e-01 4.413447345990166e-01 1.332484577390178e-01 -1.825224909756800e-01 3.002023598613161e-02 -4.015680698436912e-02 3.025539399627320e-02 -3.488742516117331e-02
            1.332088266830617e-01 -1.825663840049107e-01 7.001746137546930e-01 4.412764351181763e-01 3.026550124269124e-02 -3.488204290128639e-02 3.004231145445506e-02 -4.020494462667418e-02
58951626.3552960828 2.051833284594669e-02 -2.239678802572189e-02 2.210706689308900e-02 -1.562556800610701e-02 7.609602497719462e-01 3.238460322490829e-01 1.055728188759044e-01 -2.052408569531099e-01
            2.212887003885755e-02 -1.563309504359026e-02 2.046502448339633e-02 -2.233392543715515e-02 1.055902123345997e-01 -2.052642985723791e-01 7.609960064667327e-01 3.238929424633629e-01
            7.609380921701915e-01 3.238380354174863e-01 1.055571869091875e-01 -2.052968402144444e-01 2.128365881821947e-02 -2.120688534319870e-02 2.155095677815796e-02 -1.623742233853440e-02
            1.055661860157646e-01 -2.052562388846400e-01 7.608691261038244e-01 3.238244953519231e-01 2.159063256706878e-02 -1.615170145052490e-02 2.126174761872363e-02 -2.125799793257857e-02
59451209.3411175981 1.861939707818697e-02 -1.313110062541032e-03 2.015037410745783e-02 4.713089527010199e-03 8.011651063983590e-01 1.980724718533890e-01 7.300464137519228e-02 -2.240201500529939e-01
            2.007461794774337e-02 4.714813547950343e-03 1.872525330699708e-02 -1.384538404738129e-03 7.308480912890195e-02 -2.239530162268782e-01 8.012580404920576e-01 1.980953281991694e-01
            8.012998285986694e-01 1.980897986530878e-01 7.302986212059359e-02 -2.239223286655450e-01 1.911027614784225e-02 -5.039144793844490e-04 1.943166233443298e-02 4.319023119916200e-03
            7.297063865892585e-02 -2.239961617783241e-01 8.012294265347969e-01 1.981095361109656e-01 1.942725668561444e-02 4.294897119725112e-03 1.907124834549030e-02 -4.954918617521184e-04
59950792.3269391134 2.372673954168843e-02 1.912390880901536e-02 2.484716485242595e-02 2.449183944082400e-02 8.199083171409000e-01 6.798462384226035e-02 3.620458907129381e-02 -2.371549473583259e-01
            2.482183165426260e-02 2.444518634172370e-02 2.368595556935099e-02 1.902228548130092e-02 3.616949961213976e-02 -2.371689134345789e-01 8.200180275088940e-01 6.803703157712143e-02
            8.200459627551977e-01 6.804898304629681e-02 3.616892468265898e-02 -2.371014550362825e-01 2.377663761369098e-02 1.985620147740381e-02 2.409736845940843e-02 2.435579294436175e-02
            3.617038110734603e-02 -2.371450100254693e-01 8.199742816725626e-01 6.800929614914614e-02 2.412968014942185e-02 2.439183047745623e-02 2.378448118099582e-02 1.988099496202642e-02
60450375.3127606362 3.506091098003829e-02 3.656833885976136e-02 3.562907787130481e-02 4.158806006001826e-02 8.170573351915938e-01 -6.226146728902673e-02 -3.585515297370819e-03 -2.434782579101126e-01
            3.568961094234305e-02 4.158203638795031e-02 3.499733412068216e-02 3.659307771173885e-02 -3.612595398036756e-03 -2.434335432036157e-01 8.170705191009854e-01 -6.233046287288687e-02
            8.170626401461859e-01 -6.229029096214449e-02 -3.579388494782708e-03 -2.435047562645367e-01 3.454299028261206e-02 3.743456608033686e-02 3.493244167331044e-02 4.169997304182065e-02
            -3.618409957723175e-03 -2.434346267385712e-01 8.170297518181381e-01 -6.228466638289400e-02 3.489037491708426e-02 4.172532576067657e-02 3.459667486269885e-02 3.735660859150888e-02
60949958.2985821515 5.117909323806642e-02 4.934747033504337e-02 5.125124104073529e-02 5.412021046791662e-02 7.934384528898374e-01 -1.890103796124364e-01 -4.470719579042590e-02 -2.422024931189702e-01
            5.131857731681420e-02 5.409709542157323e-02 5.114384168777510e-02 4.936749843089165e-02 -4.475028189956431e-02 -2.421652136639861e-01 7.934142774700547e-01 -1.889567988131630e-01
            7.933584771225162e-01 -1.890777061499456e-01 -4.471522242727909e-02 -2.421944110892927e-01 5.045290997065933e-02 5.041422885207313e-02 5.045738095408733e-02 5.454033849097406e-02
            -4.469074661240217e-02 -2.421735829588701e-01 7.934689246226064e-01 -1.890580535286527e-01 5.045825761177930e-02 5.453875451610216e-02 5.047043860255311e-02 5.033451430131521e-02
61449541.2844036743 7.037047169092731e-02 5.621030191387602e-02 6.984499105311871e-02 6.108405136111571e-02 7.504423604198304e-01 -3.089610413575706e-01 -8.535525734090009e-02 -2.330001900379148e-01
            6.980693090771364e-02 6.100388789955610e-02 7.030090282094636e-02 5.618017211598204e-02 -8.530008153093352e-02 -2.331048563301110e-01 7.504771620098872e-01 -3.089587053124342e-01
            7.505022044675811e-01 -3.089613960246982e-01 -8.532212144107072e-02 -2.330385072899500e-01 6.928596640342967e-02 5.755051146705133e-02 6.930028175965740e-02 6.172283598666777e-02
            -8.530505743973542e-02 -2.329783055941076e-01 7.505104063925623e-01 -3.090278671652898e-01 6.919365570358744e-02 6.163581743435056e-02 6.930095040227378e-02 5.753744437600852e-02
61949124.2702251896 9.034725120142541e-02 5.676164594495525e-02 8.931126726727993e-02 6.168448572898503e-02 6.902310619784745e-01 -4.194391069923959e-01 -1.233861083170798e-01 -2.163178856137257e-01
            8.937181226082683e-02 6.167219150106561e-02 9.039075253465134e-02 5.662199888609771e-02 -1.233883894957019e-01 -2.163623181198079e-01 6.901923290109755e-01 -4.194553466038606e-01
            6.902376618276664e-01 -4.194118766067725e-01 -1.233570129186218e-01 -2.163685073348129e-01 8.912949521215173e-02 5.837492782677804e-02 8.883067514298883e-02 6.255154327267295e-02
            -1.234105258222701e-01 -2.163330929117214e-01 6.902256226255393e-01 -4.194252997726455e-01 8.884641557765426e-02 6.250660554640025e-02 8.911702106044020e-02 5.846909995263553e-02
62448707.2560467049 1.094076072844711e-01 5.096645855687366e-02 1.077073816179104e-01 5.635935018481547e-02 6.147821450461161e-01 -5.183294073940472e-01 -1.575413607795184e-01 -1.931008516897101e-01
            1.077913116948462e-01 5.631729075094465e-02 1.093174975438550e-01 5.100366908854085e-02 -1.574668293462870e-01 -1.930608401258865e-01 6.148051626165372e-01 -5.183627199138615e-01
            6.147976089166444e-01 -5.184476415870972e-01 -1.575767889867785e-01 -1.931000479561710e-01 1.080139246514501e-01 5.311973089773976e-02 1.075770636435976e-01 5.737897392355277e-02
            -1.575026080922973e-01 -1.931884271880263e-01 6.147938540111615e-01 -5.183772316552385e-01 1.075389780146424e-01 5.736084277864426e-02 1.079153222503082e-01 5.317971665886606e-02
62948290.2418682277 1.254282817620807e-01 3.989447901327964e-02 1.234648463239628e-01 4.574089265003258e-02 5.263073801027086e-01 -6.042482063633907e-01 -1.864857974361215e-01 -1.646481700902702e-01
            1.234587670322828e-01 4.578157507602570e-02 1.253870632074715e-01 3.987748528878538e-02 -1.863954034607869e-01 -1.646784740881309e-01 5.263524371626318e-01 -6.041308000923288e-01
            5.262979646824303e-01 -6.041382766878046e-01 -1.865046857711986e-01 -1.646497278163777e-01 1.240346634460317e-01 4.253442328015032e-02 1.235127936704318e-01 4.679313083453880e-02
            -1.864576877854330e-01 -1.645943228592683e-01 5.263377593972939e-01 -6.041422959470611e-01 1.235743747108739e-01 4.683162352559852e-02 1.240606509395818e-01 4.241166856202598e-02
63447873.2276897430 1.371741127432713e-01 2.450436040008022e-02 1.351015597135744e-01 3.102235808557657e-02 4.268484915540063e-01 -6.756931056471275e-01 -2.095998424700029e-01 -1.323424735141258e-01
            1.351100660205424e-01 3.102770728605605e-02 1.371932618643581e-01 2.450952980329299e-02 -2.096472048622484e-01 -1.322806923861516e-01 4.268380309933264e-01 -6.756363681590749e-01
            4.268197658772770e-01 -6.756183447062202e-01 -2.095248530858759e-01 -1.323493477127704e-01 1.359253570027201e-01 2.774279581443781e-02 1.354612152650916e-01 3.209550688087118e-02
            -2.095234937048758e-01 -1.323512217037482e-01 4.269269275979685e-01 -6.755416713192754e-01 1.355191445771787e-01 3.207888405497843e-02 1.359672382337350e-01 2.769431889261663e-02
63947456.2135112584 1.437758103531137e-01 6.435163212312816e-03 1.418001754340833e-01 1.357858155632601e-02 3.185001925128874e-01 -7.315462249745974e-01 -2.267214319497589e-01 -9.759674703637573e-02
            1.416665787285094e-01 1.358537379190752e-02 1.437459613421755e-01 6.414058622971288e-03 -2.267229740253906e-01 -9.762726709900017e-02 3.185568477531333e-01 -7.315670662647032e-01
            3.184659144946543e-01 -7.315844166746334e-01 -2.267946046049306e-01 -9.758057412300632e-02 1.428402769307445e-01 1.018113486579385e-02 1.423620696156395e-01 1.461511208839287e-02
            -2.266816518229423e-01 -9.761266282554741e-02 3.185303012747901e-01 -7.316148732811996e-01 1.423291002041450e-01 1.460153358926081e-02 1.428618312073435e-01 1.006817792770399e-02
64447039.1993327811 1.446223443094381e-01 -1.271623572426388e-02 1.427656957527055e-01 -4.822840682635409e-03 2.031642948013996e-01 -7.711756353133185e-01 -2.380326547487920e-01 -6.157944333801671e-02
            1.427401974012233e-01 -4.794783626720926e-03 1.445037029701198e-01 -1.276175039510684e-02 -2.380066661017462e-01 -6.156839127812454e-02 2.031264758227516e-01 -7.711598508477668e-01
            2.031644277289921e-01 -7.712498631293173e-01 -2.380722207258051e-01 -6.160591572140272e-02 1.440735297898267e-01 -8.614624094267612e-03 1.436767129182206e-01 -4.098969702219707e-03
            -2.381169999827819e-01 -6.159455404247286e-02 2.031985166904428e-01 -7.711204996784725e-01 1.436890447131939e-01 -4.061242210018554e-03 1.440882909645456e-01 -8.643611486612263e-03
64946622.1851542965 1.396608643055191e-01 -3.139820052810025e-02 1.382731112419828e-01 -2.284774009422114e-02 8.303638685715360e-02 -7.935579756802575e-01 -2.438941657128961e-01 -2.522568295403010e-02
            1.382473677072654e-01 -2.288814433257897e-02 1.395570128992360e-01 -3.129567502562385e-02 -2.439593025609710e-01 -2.513547846776137e-02 8.298363212257806e-02 -7.936166375487329e-01
            8.298586096696182e-02 -7.935262056011673e-01 -2.439916388899201e-01 -2.512013228684679e-02 1.396215921462804e-01 -2.681581584230266e-02 1.394112187980198e-01 -2.224183874519685e-02
            -2.439291966357822e-01 -2.515898878627911e-02 8.293867146386213e-02 -7.935819319898499e-01 1.394010065959506e-01 -2.225383352630710e-02 1.396502172657322e-01 -2.683874379382099e-02
65446205.1709758118 1.292407117163812e-01 -4.766664969240841e-02 1.284875137505298e-01 -3.876664033753791e-02 -3.985425329250435e-02 -7.978434939254103e-01 -2.449707306494972e-01 1.093338429449752e-02
            1.284624851960126e-01 -3.879504121792120e-02 1.291766747762663e-01 -4.766775165173942e-02 -2.449723165936378e-01 1.091257402130982e-02 -3.986981740297169e-02 -7.978554440357898e-01
            -3.990796443884780e-02 -7.978628445280861e-01 -2.449418404779692e-01 1.086363497116347e-02 1.299254202558387e-01 -4.301376823464719e-02 1.297467466194074e-01 -3.841018066187315e-02
            -2.449558132184317e-01 1.092944246353611e-02 -3.982585807203574e-02 -7.979214764713866e-01 1.298126961995924e-01 -3.842180338491195e-02 1.298842695822154e-01 -4.293388449649031e-02
65945788.1567973346 1.143356500125378e-01 -6.026468538428937e-02 1.142722055694791e-01 -5.102054375672473e-02 -1.628621644682142e-01 -7.836486443210082e-01 -2.414572587857562e-01 4.650868690348869e-02
            1.142003499700111e-01 -5.107990306530828e-02 1.143091495080094e-01 -6.030904900647669e-02 -2.414677791841646e-01 4.648800011163377e-02 -1.627811394753702e-01 -7.835787241936937e-01
            -1.628838749866746e-01 -7.835997990870908e-01 -2.414117765810692e-01 4.644179097390968e-02 1.156677069977657e-01 -5.545123321682501e-02 1.156611085837604e-01 -5.095316266810282e-02
            -2.414422289671275e-01 4.657984953800054e-02 -1.629130171324071e-01 -7.835654605123492e-01 1.157008212291030e-01 -5.097804505449059e-02 1.156571502625655e-01 -5.545793484725293e-02
66445371.1426188499 9.608202152388966e-02 -6.765318796322060e-02 9.675484250580119e-02 -5.850881490759569e-02 -2.832343845335047e-01 -7.504607100055074e-01 -2.336100919149056e-01 8.130927412026569e-02
            9.679356042358601e-02 -5.850810968223615e-02 9.611008800788451e-02 -6.770033439250049e-02 -2.336345552844424e-01 8.135936306100106e-02 -2.832744029806231e-01 -7.504152771083533e-01
            -2.833140485759424e-01 -7.504387098389654e-01 -2.337177009723276e-01 8.133589978265832e-02 9.810885286091575e-02 -6.294102858205886e-02 9.813047886468063e-02 -5.870351965963681e-02
            -2.335377393109447e-01 8.136455177900159e-02 -2.832225054860679e-01 -7.503955725921331e-01 9.821968905447413e-02 -5.871737178321444e-02 9.809646996159953e-02 -6.293610165109534e-02
66944954.1284403652 7.625026157116438e-02 -6.925073312630516e-02 7.752741411165648e-02 -6.011667474805107e-02 -3.981234235080947e-01 -6.983073457648271e-01 -2.216078764569145e-01 1.154374567285148e-01
            7.755708487738312e-02 -6.014658690797197e-02 7.617366724247378e-02 -6.929434146223612e-02 -2.215691177396628e-01 1.154514710298613e-01 -3.979994234563319e-01 -6.982287438763953e-01
            -3.980357119462682e-01 -6.982672469347617e-01 -2.215282790578519e-01 1.154797664490471e-01 7.890895366006405e-02 -6.477294557986715e-02 7.895823789625024e-02 -6.066086977987335e-02
            -2.216041187705222e-01 1.154366897927913e-01 -3.981353790677551e-01 -6.982294305842981e-01 7.892950941884808e-02 -6.059509260390580e-02 7.887717044246388e-02 -6.473237269376360e-02
67444537.1142618954 5.655771119834511e-02 -6.444532427172107e-02 5.858333906461890e-02 -5.562953910974121e-02 -5.040259176340363e-01 -6.278166661122495e-01 -2.049614300584536e-01 1.486597442899120e-01
            5.860868759301349e-02 -5.565001985734475e-02 5.654071426889055e-02 -6.449504800639293e-02 -2.049865303685972e-01 1.485978459952177e-01 -5.040014858226066e-01 -6.278159114870021e-01
            -5.040245997411182e-01 -6.278172840771923e-01 -2.049738976201083e-01 1.485832514770603e-01 5.984245189922164e-02 -6.029242295334612e-02 5.985769103869298e-02 -5.650342289638653e-02
            -2.049955061457717e-01 1.485690780432147e-01 -5.039641890533954e-01 -6.278945580334864e-01 5.988794172218857e-02 -5.651456184052824e-02 5.980325777174147e-02 -6.035634341843616e-02
67944120.1000834107 3.919677259978184e-02 -5.367038869248339e-02 4.192667229400304e-02 -4.521945675981422e-02 -5.976157031372069e-01 -5.406050140694130e-01 -1.833631991270025e-01 1.803365419922873e-01
            4.191914946873563e-02 -4.524605268142801e-02 3.915772640898677e-02 -5.368674729098891e-02 -1.834249605173701e-01 1.803335273471618e-01 -5.976206701167891e-01 -5.405626037829977e-01
            -5.976849564243909e-01 -5.406301062741933e-01 -1.833535370784236e-01 1.803198588390249e-01 4.311386338198357e-02 -5.010133566865951e-02 4.288563751574697e-02 -4.641840560286051e-02
            -1.833768245916854e-01 1.803404614982848e-01 -5.976614922382245e-01 -5.405868132062975e-01 4.300850205718259e-02 -4.638643658919398e-02 4.309652959979110e-02 -5.003010020402014e-02
68443703.0859049261 2.609943968247182e-02 -3.775491091553181e-02 2.927771901314639e-02 -2.992627449330770e-02 -6.760414320018839e-01 -4.386236325596675e-01 -1.564431986728342e-01 2.097943374546669e-01
            2.926967409233291e-02 -2.989705402008689e-02 2.612567688523744e-02 -3.774089293910718e-02 -1.564249372268634e-01 2.098569048898662e-01 -6.760410048059654e-01 -4.387002552299925e-01
            -6.760786346085428e-01 -4.386109214835851e-01 -1.564516059673223e-01 2.097597638986669e-01 3.032155625845293e-02 -3.484640755366677e-02 2.996697695519191e-02 -3.136946180908116e-02
            -1.563521871532792e-01 2.098249757382006e-01 -6.759587011123421e-01 -4.386375986530810e-01 2.998788195755354e-02 -3.125987786615259e-02 3.030004107211770e-02 -3.487951339487122e-02
68943286.0717264414 1.874618102806338e-02 -1.844911748990748e-02 2.221366282945034e-02 -1.128481747632945e-02 -7.363244468868791e-01 -3.249371661229098e-01 -1.239371631321744e-01 2.357954237802677e-01
            2.220467243673714e-02 -1.126725584608175e-02 1.880793386051438e-02 -1.847801000002709e-02 -1.238832951463783e-01 2.357126582757394e-01 -7.364417421685322e-01 -3.249758070256368e-01
            -7.363607667631594e-01 -3.250021390648790e-01 -1.239095654138944e-01 2.356748128856280e-01 2.328772681399532e-02 -1.614379400951706e-02 2.261056690729639e-02 -1.272310463376247e-02
            -1.239694583591933e-01 2.357416960644878e-01 -7.363900528407161e-01 -3.249507897814270e-01 2.253420816968328e-02 -1.269002480902877e-02 2.325763020596828e-02 -1.609669187563204e-02
69442869.0575479567 1.810947756812252e-02 2.282380595145353e-03 2.160208822270359e-02 8.768511334325112e-03 -7.768809160794710e-01 -2.030337620713025e-01 -8.618254561712650e-02 2.567236040349940e-01
            2.164239918125453e-02 8.807747107607436e-03 1.810907285748610e-02 2.193295932113318e-03 -8.606777874216623e-02 2.567921280926524e-01 -7.768248766859658e-01 -2.030086639094288e-01
            -7.769004731850945e-01 -2.031252239860320e-01 -8.610517979325208e-02 2.566738841121078e-01 2.264589579521696e-02 3.806176765916164e-03 2.158983508442976e-02 7.217060239260805e-03
            -8.621373724717933e-02 2.566738940126746e-01 -7.768158981897187e-01 -2.030751658606768e-01 2.160217652759232e-02 7.281491842379318e-03 2.260782072490058e-02 3.832114314123005e-03
69942452.0433694720 2.397719705660992e-02 2.182994899616927e-02 2.748966540604148e-02 2.778399570556735e-02 -7.965636077559388e-01 -7.691785822999837e-02 -4.395912540067489e-02 2.711825919632350e-01
            2.750671507010792e-02 2.789195151595791e-02 2.401147460786231e-02 2.182494500743600e-02 -4.399874564412308e-02 2.712316511668574e-01 -7.964721223238217e-01 -7.695530988213709e-02
            -7.963887604923922e-01 -7.693758417260677e-02 -4.386039020923019e-02 2.712433593890731e-01 2.843108174373898e-02 2.283666727936464e-02 2.716430971075895e-02 2.644027402641231e-02
            -4.390161450456533e-02 2.712728309932608e-01 -7.964438599669796e-01 -7.694955382473120e-02 2.713865688218387e-02 2.640144641494382e-02 2.842639655322326e-02 2.281653933770481e-02
70442035.0291909873 3.600728763120392e-02 3.837327686601046e-02 3.916834415506752e-02 4.392964566367875e-02 -7.950741043693245e-01 4.949571043380200e-02 1.330842357557679e-03 2.780348588607518e-01
            3.902858773562125e-02 4.392558925075025e-02 3.592747641380507e-02 3.833889080816722e-02 1.307577052690174e-03 2.778700492557221e-01 -7.951788750016711e-01 4.945097143737760e-02
            -7.952555978946599e-01 4.956856401935377e-02 1.288726300810809e-03 2.779699092451747e-01 4.006164763522265e-02 3.877116265833105e-02 3.843208756538983e-02 4.261606908630858e-02
            1.289390395556726e-03 2.779663878427423e-01 -7.951450503294497e-01 4.952271936827427e-02 3.849228091427984e-02 4.251382544155340e-02 4.010305553911570e-02 3.872500788716900e-02
70941618.0150125176 5.228311642086882e-02 5.008056951327346e-02 5.510252454787993e-02 5.512590290796097e-02 -7.738685407024353e-01 1.727297439842093e-01 4.768534191767458e-02 2.762495453453052e-01
            5.511989970547758e-02 5.526864880262097e-02 5.231337216671479e-02 5.006425347904039e-02 4.765091000196543e-02 2.763004626671193e-01 -7.738044472008218e-01 1.727957864116661e-01
            -7.738083336728996e-01 1.727356356684492e-01 4.772555663513817e-02 2.763085306896703e-01 5.603783486431234e-02 5.005761774117853e-02 5.417649607954912e-02 5.414152443411857e-02
            4.765138149110668e-02 2.762697822367420e-01 -7.738824073559943e-01 1.727965745882872e-01 5.413679344553739e-02 5.412387137671512e-02 5.606429933211100e-02 5.005894172116069e-02
71441201.0008340329 7.125110950567703e-02 5.578262582775064e-02 7.362501852566183e-02 6.069745573797635e-02 -7.338701008289469e-01 2.897128267666840e-01 9.326777390131079e-02 2.660016543845152e-01
            7.367694124665083e-02 6.078396153746152e-02 7.123056642810427e-02 5.591074443583709e-02 9.325354771863435e-02 2.659917148972260e-01 -7.338905341378973e-01 2.896638632015682e-01
            -7.338867126916852e-01 2.896537164832750e-01 9.324743303627311e-02 2.659628733064474e-01 7.453576336925635e-02 5.550951180933038e-02 7.256236995058143e-02 6.013753377102009e-02
            9.331298072656781e-02 2.660614913171543e-01 -7.338487570498524e-01 2.896486654057695e-01 7.247390113274710e-02 6.011171315299289e-02 7.449355841118621e-02 5.554935992528310e-02
71940783.9866555482 9.071608769601643e-02 5.546189511791053e-02 9.278867514946353e-02 6.036700190889376e-02 -6.771932862527388e-01 3.977750107704602e-01 1.360819018841297e-01 2.476338411924812e-01
            9.266367727001126e-02 6.025837227969162e-02 9.072655138072230e-02 5.532489756736195e-02 1.361243193668647e-01 2.476526679681167e-01 -6.771195496114814e-01 3.977231657120482e-01
            -6.771741022708047e-01 3.977203951569531e-01 1.361232288802861e-01 2.475769407863255e-01 9.353383011695933e-02 5.490655296601225e-02 9.148208033597911e-02 5.998959042141492e-02
            1.361215646810736e-01 2.476067196866730e-01 -6.771152372070551e-01 3.977042790329784e-01 9.150888246793583e-02 5.996432671606936e-02 9.354157612550482e-02 5.484501272954392e-02
72440366.9724770635 1.088163155326724e-01 4.898053441125010e-02 1.104736274197468e-01 5.389656700252895e-02 -6.053801785183126e-01 4.949249323030543e-01 1.745909270858396e-01 2.220847391522193e-01
            1.104326752886238e-01 5.391372957501746e-02 1.088449392236283e-01 4.891161252610469e-02 1.745755255601828e-01 2.220808634852953e-01 -6.054248963348086e-01 4.949982457831922e-01
            -6.053793661272456e-01 4.949534087661491e-01 1.745827161123307e-01 2.221331361538147e-01 1.110720131668193e-01 4.847029990308013e-02 1.091723868788679e-01 5.401023048637825e-02
            1.745790587466974e-01 2.220691462058189e-01 -6.054752850541596e-01 4.948940920881206e-01 1.091875526548832e-01 5.405862803893757e-02 1.109750221160549e-01 4.844356318824524e-02
72939949.9582985789 1.237091038609620e-01 3.740800245482814e-02 1.252221869219449e-01 4.266355277462192e-02 -5.208924306125563e-01 5.798219792798470e-01 2.075155978156216e-01 1.907203707850740e-01
            1.252281074689074e-01 4.257442226593945e-02 1.237907930994902e-01 3.743017474383672e-02 2.074769819044391e-01 1.907465970550519e-01 -5.208862498287995e-01 5.797870774184283e-01
            -5.208918366848273e-01 5.798005053467202e-01 2.074915518186012e-01 1.908259246601041e-01 1.255737585189531e-01 3.703338671848669e-02 1.240405881889349e-01 4.311691182743660e-02
            2.074864168179796e-01 1.906850750314296e-01 -5.209024611184657e-01 5.798024821727883e-01 1.240644621484835e-01 4.313101163718812e-02 1.256607521411956e-01 3.707088353283738e-02
73439532.9441200942 1.343583859972638e-01 2.198416205568108e-02 1.357342918952630e-01 2.751172953598511e-02 -4.254396764109047e-01 6.509392247371836e-01 2.343534934791749e-01 1.551247360894688e-01
            1.357002824333074e-01 2.756350619405576e-02 1.343963942959096e-01 2.200997632589828e-02 2.343410631734162e-01 1.550783429771238e-01 -4.253422952756927e-01 6.509150603339373e-01
            -4.254408904166020e-01 6.509452758086171e-01 2.343123449011206e-01 1.551330584069776e-01 1.358170498727509e-01 2.192560737514803e-02 1.348092307129743e-01 2.831598447257253e-02
            2.342963278113623e-01 1.551953069191312e-01 -4.253523012872933e-01 6.508689845948400e-01 1.347962213598619e-01 2.837973590646338e-02 1.358205306910350e-01 2.196866937736677e-02
73939115.9299416244 1.398136328220908e-01 4.171615076766140e-03 1.410866041422357e-01 1.019407895323432e-02 -3.208131111666900e-01 7.072937788450575e-01 2.546024998228265e-01 1.165779831487133e-01
            1.411422800533532e-01 1.010872306089486e-02 1.397497359317554e-01 4.191405137129993e-03 2.546346109070782e-01 1.165565811985982e-01 -3.208153927236508e-01 7.073254636890213e-01
            -3.208145640439526e-01 7.072393346131671e-01 2.545751245128378e-01 1.166247916165302e-01 1.409491299881009e-01 4.452233559923754e-03 1.405357982557398e-01 1.120814095478081e-02
            2.546167847218579e-01 1.166450934080132e-01 -3.208220133271518e-01 7.072704242594656e-01 1.404979083223145e-01 1.126100396356074e-02 1.410173924647640e-01 4.558243540067089e-03
74438698.9157631397 1.394892542396615e-01 -1.435106473701735e-02 1.411092514548150e-01 -7.972429739583372e-03 -2.090530588100459e-01 7.476701960639520e-01 2.686464663349338e-01 7.616944073954179e-02
            1.410588981259648e-01 -8.029562887793490e-03 1.395430984415135e-01 -1.438291558777765e-02 2.685987308000926e-01 7.621766447265985e-02 -2.090291857371081e-01 7.477419328311286e-01
            -2.090420695940997e-01 7.476848024334144e-01 2.686561814727312e-01 7.621551816001430e-02 1.404930368082752e-01 -1.362615228287234e-02 1.407878473172249e-01 -6.835903767820456e-03
            2.687053803801757e-01 7.621662545049389e-02 -2.090686988931694e-01 7.477167657386184e-01 1.408719123345228e-01 -6.795872450836168e-03 1.405819534924827e-01 -1.360021098718042e-02
74938281.9015846550 1.335805650562336e-01 -3.208133555818208e-02 1.355953254133626e-01 -2.535773267707297e-02 -9.217927713148172e-02 7.714346151415012e-01 2.766638777121735e-01 3.503865811220801e-02
            1.355920293860398e-01 -2.541915284752082e-02 1.335073307233747e-01 -3.205179808058958e-02 2.767489183966853e-01 3.514609295692981e-02 -9.215340585487483e-02 7.714256228161679e-01
            -9.213370989835037e-02 7.714638696511640e-01 2.766419653695394e-01 3.504805703467326e-02 1.346948028233520e-01 -3.072095685643961e-02 1.356859608897964e-01 -2.416099961043802e-02
            2.766730852521920e-01 3.508707181909061e-02 -9.217643231701735e-02 7.713774282092690e-01 1.357625281130990e-01 -2.406390496217767e-02 1.346153379572704e-01 -3.076619655227348e-02
75437864.8874061704 1.224780714663129e-01 -4.714383964759047e-02 1.250132767639407e-01 -4.022774103101535e-02 2.774421434713341e-02 7.774586750651208e-01 2.790316462974939e-01 -6.244676251597121e-03
            1.250449552053379e-01 -4.023409491580056e-02 1.224984808158324e-01 -4.722166840316753e-02 2.790785765660826e-01 -6.221976964595486e-03 2.773923844188435e-02 7.774926582243211e-01
            2.772054874515955e-02 7.774654333570279e-01 2.790978010035615e-01 -6.193456249646796e-03 1.237676412776613e-01 -4.539535042002126e-02 1.255969909841324e-01 -3.903850889511498e-02
            2.790883880197418e-01 -6.106920197032632e-03 2.767073818817463e-02 7.774812851461647e-01 1.254705864097294e-01 -3.903824493487846e-02 1.237956335832404e-01 -4.531356788756757e-02
75937447.8732276857 1.070899658882011e-01 -5.823575750351966e-02 1.103276299365249e-01 -5.134599195918128e-02 1.480603331228012e-01 7.652488922086403e-01 2.761294469636897e-01 -4.713544835717007e-02
            1.102251255311673e-01 -5.133748852876942e-02 1.070928804110125e-01 -5.825475135966944e-02 2.761260256984300e-01 -4.719319310750854e-02 1.480141948360627e-01 7.652069591419579e-01
            1.480532546768288e-01 7.652755614119887e-01 2.761912707076405e-01 -4.716651391940904e-02 1.088235183872783e-01 -5.598788593722954e-02 1.112173098246699e-01 -5.017298681564057e-02
            2.761622546888625e-01 -4.717844169657549e-02 1.480143798150916e-01 7.652108130318384e-01 1.111962902240971e-01 -5.024469919157432e-02 1.088394831217804e-01 -5.603683027745204e-02
76437030.8590492159 8.877332470772345e-02 -6.426239711463023e-02 9.271567448956530e-02 -5.735469819240484e-02 2.660926150637660e-01 7.342998530912820e-01 2.680215578516986e-01 -8.764300923417723e-02
            9.268011532473762e-02 -5.748381951880231e-02 8.884672286555610e-02 -6.428491756153527e-02 2.680461200531691e-01 -8.762353623844640e-02 2.660380533969225e-01 7.342209373768589e-01
            2.660539458083545e-01 7.342522624890512e-01 2.680212937918366e-01 -8.762733653595364e-02 9.100577181696470e-02 -6.165278813023727e-02 9.396964211835387e-02 -5.653269205681224e-02
            2.680704192810661e-01 -8.770456922409588e-02 2.661243635955381e-01 7.342191761816265e-01 9.400664611064920e-02 -5.662561537661005e-02 9.108400936579153e-02 -6.162344800843043e-02
76936613.8448707312 6.928913702370390e-02 -6.418138061400290e-02 7.388862495259663e-02 -5.782233748690181e-02 3.787123672963902e-01 6.846360855034804e-01 2.546837594003621e-01 -1.273250311480586e-01
            7.383841494329074e-02 -5.776302465623510e-02 6.925690390212057e-02 -6.426955258677612e-02 2.547096634930642e-01 -1.273341233965906e-01 3.787713329049604e-01 6.845172798342235e-01
            3.787027078240674e-01 6.845886195290818e-01 2.547062637515474e-01 -1.273627167948377e-01 7.212810248267634e-02 -6.135656694695533e-02 7.546908693139444e-02 -5.725748670446829e-02
            2.546708802759218e-01 -1.272915487238455e-01 3.786896545886069e-01 6.846387350661794e-01 7.546669006302753e-02 -5.724084235009544e-02 7.214936349131873e-02 -6.144656331631453e-02
77436196.8306922466 5.043511183268830e-02 -5.789891550599061e-02 5.565529680429236e-02 -5.204777788705740e-02 4.826454037798835e-01 6.169314749903601e-01 2.358282590244966e-01 -1.659154164967121e-01
            5.553480563103887e-02 -5.198040400976478e-02 5.043017622919089e-02 -5.781605706335271e-02 2.358166057402915e-01 -1.659222201036803e-01 4.826788707374340e-01 6.168938745279418e-01
            4.826956355755184e-01 6.169126408378069e-01 2.357572759208657e-01 -1.658474732997055e-01 5.410818816065514e-02 -5.507722180777866e-02 5.736344680197249e-02 -5.194374469612665e-02
            2.357497433572150e-01 -1.658435393959819e-01 4.826277237116421e-01 6.169136522354490e-01 5.749707471888481e-02 -5.187739337662189e-02 5.412427122290793e-02 -5.507391147481808e-02
77935779.8165137619 3.436306586260484e-02 -4.576406894208576e-02 4.006714844782542e-02 -4.060729955561731e-02 5.747547341138783e-01 5.327098797506639e-01 2.109064574366017e-01 -2.024508751959736e-01
            4.008902880656903e-02 -4.063669540209833e-02 3.434046971041971e-02 -4.577608190992136e-02 2.109033461761964e-01 -2.024235747327025e-01 5.746939837384396e-01 5.326730081601128e-01
            5.747198653773878e-01 5.326892474765268e-01 2.109799354697910e-01 -2.024665016424790e-01 3.878651861040031e-02 -4.318146543387413e-02 4.206854129380748e-02 -4.103478277200325e-02
            2.109060852176136e-01 -2.024427425139840e-01 5.747305545879998e-01 5.326454429674519e-01 4.205927275594401e-02 -4.101534138733043e-02 3.874553015119134e-02 -4.315110606200629e-02
78435362.8023352772 2.280622135958550e-02 -2.900110512938231e-02 2.881056337219675e-02 -2.469470861681406e-02 6.517706931227747e-01 4.340514334738503e-01 1.798434369633339e-01 -2.360666962298550e-01
            2.884901594957842e-02 -2.469545554204508e-02 2.275938182763290e-02 -2.896318254102778e-02 1.797791571763970e-01 -2.362211300724170e-01 6.518502399254243e-01 4.340772320559160e-01
            6.517913056376587e-01 4.341314604995702e-01 1.797862762113270e-01 -2.360994877782440e-01 2.798272198815071e-02 -2.670888768734907e-02 3.079402275975274e-02 -2.562087216765113e-02
            1.798728465138894e-01 -2.360680504820474e-01 6.517780585171409e-01 4.341092814355195e-01 3.076040669234231e-02 -2.562006759661706e-02 2.791003012105206e-02 -2.672739527966553e-02
78934945.7881567925 1.719608917690555e-02 -9.228737002173252e-03 2.346732549954974e-02 -5.874039429012702e-03 7.113122423794139e-01 3.240835086407423e-01 1.425465721246489e-01 -2.653749700601653e-01
            2.348449238208624e-02 -5.862975058703326e-03 1.719408497768996e-02 -9.252693394015679e-03 1.425610184847960e-01 -2.654054110695191e-01 7.113371086117127e-01 3.240261882751836e-01
            7.113047867184232e-01 3.240895823358342e-01 1.425183077568598e-01 -2.654108861851489e-01 2.298996259064071e-02 -7.588071186055913e-03 2.513922270023192e-02 -7.326981725133263e-03
            1.424596101008557e-01 -2.653971248792731e-01 7.113457023796573e-01 3.240898654098782e-01 2.518672000090050e-02 -7.339630516039636e-03 2.298573626350307e-02 -7.536410618913410e-03
79434528.7739783227 1.829104257359675e-02 1.129159522456942e-02 2.447010422589417e-02 1.371545606807480e-02 7.515046267843466e-01 2.062650238440308e-01 9.951648686447177e-02 -2.887657462495552e-01
            2.442409011242433e-02 1.371032222833640e-02 1.824290168235787e-02 1.133891754418520e-02 9.954911970352713e-02 -2.887296486601881e-01 7.515446883400732e-01 2.062153636988850e-01
            7.514917676730699e-01 2.062903952600657e-01 9.950448112707573e-02 -2.888116153209386e-01 2.462773949184988e-02 1.229793605492172e-02 2.585924114753392e-02 1.180778189431457e-02
            9.946050923214328e-02 -2.887410785829541e-01 7.515776079599752e-01 2.062941418337276e-01 2.585243923063572e-02 1.185410170133229e-02 2.452876899946299e-02 1.238231403382084e-02
79934111.7597998381 2.579999222422077e-02 3.051238831030624e-02 3.181324710764472e-02 3.182656291309868e-02 7.715873080754371e-01 8.426492978558445e-02 5.184739414774821e-02 -3.045720597214051e-01
            3.163676887499284e-02 3.189745265912740e-02 2.577351754936944e-02 3.048531120120157e-02 5.185804378806377e-02 -3.046108306246921e-01 7.715474350683859e-01 8.425443999008582e-02
            7.716160083717762e-01 8.421407723534287e-02 5.182956453452515e-02 -3.045558094211457e-01 3.252034936299083e-02 3.068865178134642e-02 3.278105276905832e-02 2.955283068459610e-02
            5.179091168233253e-02 -3.045267125596400e-01 7.715455852574714e-01 8.424486876236111e-02 3.271869499695055e-02 2.961595358378296e-02 3.251368153799850e-02 3.058429723340094e-02
80433694.7456213534 3.890788141734676e-02 4.623040005366431e-02 4.446129053021894e-02 4.660184478777743e-02 7.715404437863590e-01 -3.804667398800191e-02 1.150992845542086e-03 -3.117754792621296e-01
            4.443715772706557e-02 4.661232356888564e-02 3.895972590956463e-02 4.611768680059612e-02 1.205662197115800e-03 -3.117772823426743e-01 7.715340254631730e-01 -3.810909415767393e-02
            7.715601315823049e-01 -3.812359205730907e-02 1.122431641975966e-03 -3.117315229442162e-01 4.583399579268906e-02 4.532297135063320e-02 4.488120115485227e-02 4.412175793840355e-02
            1.119999385432987e-03 -3.117118444527991e-01 7.715050950259751e-01 -3.806850607686766e-02 4.486420864541428e-02 4.401392887813643e-02 4.588909371912749e-02 4.533638704390384e-02
80933277.7314428687 5.626982548044276e-02 5.675904791361334e-02 6.103025123825333e-02 5.637075853757052e-02 7.522481646405226e-01 -1.573175674418157e-01 -5.044173368352661e-02 -3.096252906521274e-01
            6.105548226297689e-02 5.634037499569553e-02 5.624611797329478e-02 5.670300111728389e-02 -5.046035772823321e-02 -3.094729018056305e-01 7.522591880627731e-01 -1.573721145648376e-01
            7.521563555811236e-01 -1.573696007138711e-01 -5.048171273679637e-02 -3.095928071155135e-01 6.308371339887942e-02 5.491471483814668e-02 6.088764176454548e-02 5.372255157558423e-02
            -5.049062773550110e-02 -3.095737179189379e-01 7.522745441119029e-01 -1.573887607269307e-01 6.083210462800603e-02 5.382290742261411e-02 6.305989862087247e-02 5.498630138650425e-02
81432860.7172643840 7.575794122965013e-02 6.141961379557934e-02 7.955493983314696e-02 6.030029956496165e-02 7.150511058383756e-01 -2.707709061237142e-01 -1.009841561665973e-01 -2.980232783431600e-01
            7.960478773785272e-02 6.042396760317510e-02 7.566942508813528e-02 6.130112302384153e-02 -1.009527125662115e-01 -2.980173800741878e-01 7.150112880282486e-01 -2.708104742240674e-01
            7.150012306996182e-01 -2.707057779598922e-01 -1.009597009928646e-01 -2.980007518853436e-01 8.223195098080562e-02 5.874431460362437e-02 7.888743659032342e-02 5.779289068404173e-02
            -1.009781885901538e-01 -2.980034622549547e-01 7.150260752925506e-01 -2.707606425288500e-01 7.885861050638508e-02 5.771293455424321e-02 8.227500634078312e-02 5.875390248831424e-02
81932443.7030858994 9.534867949248785e-02 5.983383074047076e-02 9.827760787733805e-02 5.833946416056147e-02 6.616607909262929e-01 -3.758929664592806e-01 -1.484279463996056e-01 -2.777367746088076e-01
            9.829154374503682e-02 5.840505770817976e-02 9.525414764117983e-02 5.988513725887356e-02 -1.483731530689179e-01 -2.778905904297895e-01 6.616505446679128e-01 -3.759073195935244e-01
            6.617516988004472e-01 -3.758943646880359e-01 -1.483205820354123e-01 -2.777920242255536e-01 1.014953209698961e-01 5.630977040485542e-02 9.704280099815353e-02 5.597701145006703e-02
            -1.483606341634319e-01 -2.777581004277883e-01 6.616224780544495e-01 -3.759550140621693e-01 9.690852201980400e-02 5.607567682128159e-02 1.015448828215015e-01 5.626885858848055e-02
82432026.6889074296 1.133047822269388e-01 5.235495975271515e-02 1.151815761473806e-01 5.071291864604788e-02 5.939049281478440e-01 -4.709185554388755e-01 -1.909872899627416e-01 -2.499103710587408e-01
            1.152319176181967e-01 5.066189404247802e-02 1.133203686344441e-01 5.234271549583257e-02 -1.910921063814040e-01 -2.498362838213591e-01 5.938706428613652e-01 -4.709045174102465e-01
            5.938807016956920e-01 -4.709940635681999e-01 -1.909927935388768e-01 -2.499219785214444e-01 1.189064248476291e-01 4.828517733523930e-02 1.134888836293498e-01 4.883586129404645e-02
            -1.910018892752415e-01 -2.498566858102525e-01 5.938531465721437e-01 -4.709379159304211e-01 1.135387241411351e-01 4.876826677339291e-02 1.188769161243403e-01 4.820449582930186e-02
82931609.6747289449 1.280165827133189e-01 4.011643279235812e-02 1.289511080718833e-01 3.845343929908022e-02 5.134724817357416e-01 -5.543271345450322e-01 -2.277348232766840e-01 -2.156179925449825e-01
            1.289689426101288e-01 3.838748083592309e-02 1.280383244137405e-01 4.009435545482912e-02 -2.277154423688452e-01 -2.157265726875818e-01 5.134596458827501e-01 -5.543032307170218e-01
            5.135021234363437e-01 -5.542419188295669e-01 -2.277540797951608e-01 -2.157347084706519e-01 1.328677508852671e-01 3.540126422273870e-02 1.267598644704216e-01 3.695855024439251e-02
            -2.277480348209396e-01 -2.156820609298934e-01 5.134609123400453e-01 -5.543084135852624e-01 1.267484502369160e-01 3.691709908474995e-02 1.328955623004710e-01 3.529303440010649e-02
83431192.6605504602 1.382223991517701e-01 2.420093384399437e-02 1.382307138012286e-01 2.271824017990580e-02 4.221831573915250e-01 -6.247145287704063e-01 -2.578993584425472e-01 -1.767245495986046e-01
            1.382811150927968e-01 2.270718180520881e-02 1.381829214998229e-01 2.415616743826346e-02 -2.578893644545542e-01 -1.767597164974458e-01 4.223225686869710e-01 -6.247509650422830e-01
            4.222447656392159e-01 -6.247036383881560e-01 -2.578964109811258e-01 -1.767087015690269e-01 1.422848668552377e-01 1.897545005817259e-02 1.358598838674922e-01 2.177886662279759e-02
            -2.579317863719449e-01 -1.768033940433147e-01 4.222297327264370e-01 -6.246771654549661e-01 1.358130434139821e-01 2.181523094734100e-02 1.422954370734979e-01 1.903474749568004e-02
83930775.6463719755 1.432534942850793e-01 6.010656033951399e-03 1.423414065533877e-01 5.053339164300476e-03 3.218998098376212e-01 -6.811090063340230e-01 -2.810786911911132e-01 -1.343710865966069e-01
            1.423164848312069e-01 4.993551220888851e-03 1.431911469091711e-01 6.105187153253012e-03 -2.811223531250386e-01 -1.343853916388625e-01 3.219014533957632e-01 -6.811147905060723e-01
            3.218802097519143e-01 -6.810702492867478e-01 -2.811223269795671e-01 -1.344534965007813e-01 1.466017815653345e-01 7.782728643380595e-04 1.399071761326565e-01 4.639149505250702e-03
            -2.810899245306542e-01 -1.344137773177508e-01 3.218318768419909e-01 -6.810677983300579e-01 1.399027062162466e-01 4.669482004896469e-03 1.464775281563571e-01 7.739055527608040e-04
84430358.6321934909 1.425687890637657e-01 -1.259628338282044e-02 1.409523944688533e-01 -1.314091050069896e-02 2.141747342238580e-01 -7.222701657223172e-01 -2.975194158881377e-01 -9.005853225540268e-02
            1.409986350325668e-01 -1.312420306265825e-02 1.425645770036485e-01 -1.267994049000607e-02 -2.975107275729215e-01 -8.995912874042152e-02 2.141651299759373e-01 -7.222220506886575e-01
            2.141081671315277e-01 -7.222939050013354e-01 -2.975839987211765e-01 -8.998268750417601e-02 1.451600674529628e-01 -1.795437805211840e-02 1.386290505857262e-01 -1.281886922529413e-02
            -2.975673470442063e-01 -9.001794176513196e-02 2.142432043304085e-01 -7.222134160068340e-01 1.385778200629414e-01 -1.287027958171762e-02 1.451302198888116e-01 -1.796270621186784e-02
84929941.6180150211 1.363915150920242e-01 -3.029774858475010e-02 1.342642572691385e-01 -3.006708816111978e-02 1.010916273165183e-01 -7.472328495005232e-01 -3.073841072525601e-01 -4.446509397151848e-02
            1.342585036189922e-01 -3.010975111844325e-02 1.363645042938282e-01 -3.025992320546845e-02 -3.073259934871951e-01 -4.446724116524114e-02 1.010565301526530e-01 -7.472393000508314e-01
            1.010419016950067e-01 -7.471873085927156e-01 -3.073585490231972e-01 -4.440987503568857e-02 1.382403294729249e-01 -3.543038043250322e-02 1.320693801345655e-01 -2.930487169381631e-02
            -3.073150626070651e-01 -4.442800010688121e-02 1.010813449297012e-01 -7.472062990647517e-01 1.320992068472674e-01 -2.925035767718253e-02 1.382219863413064e-01 -3.539301239039650e-02
85429524.6038365364 1.251859045833197e-01 -4.521172564680053e-02 1.226562035795009e-01 -4.430822459964207e-02 -1.527684460925083e-02 -7.550452551568919e-01 -3.108056880217627e-01 1.531217021619249e-03
            1.226347808190215e-01 -4.435526952366834e-02 1.251523244157387e-01 -4.517012933553451e-02 -3.109119553898018e-01 1.579057287940185e-03 -1.521128066303616e-02 -7.549724634885089e-01
            -1.534599152399429e-02 -7.550549069714413e-01 -3.108811778849128e-01 1.587601947412418e-03 1.264092088420262e-01 -4.999213318160598e-02 1.208504631072351e-01 -4.307739291893747e-02
            -3.108868678846803e-01 1.531692707311915e-03 -1.531852213270878e-02 -7.550303974774141e-01 1.208316855746167e-01 -4.304567620829668e-02 1.263694381173231e-01 -5.003252383467691e-02
85929107.5896580517 1.098709428656288e-01 -5.615171242265696e-02 1.071625234150009e-01 -5.453763578897017e-02 -1.324607346851378e-01 -7.450264379753320e-01 -3.083778827103533e-01 4.751144271906282e-02
            1.072257794029370e-01 -5.448768517285552e-02 1.098022411794921e-01 -5.618693859141154e-02 -3.083807076512726e-01 4.753500109458119e-02 -1.324919240745447e-01 -7.450156342834556e-01
            -1.325421389174072e-01 -7.450306198960827e-01 -3.084359485799906e-01 4.750179157967581e-02 1.106114863752228e-01 -6.049904756002149e-02 1.058810549857008e-01 -5.277777474496857e-02
            -3.084486173116323e-01 4.747495859630464e-02 -1.324034320945358e-01 -7.450658937517801e-01 1.058848600960083e-01 -5.285493267175909e-02 1.105832914374596e-01 -6.042812530444878e-02
86428690.5754795671 9.175323587754607e-02 -6.196634012840686e-02 8.911242327823850e-02 -5.949246576394708e-02 -2.477169389283750e-01 -7.166407306334540e-01 -2.999306793797145e-01 9.293471031227103e-02
            8.910829262110741e-02 -5.955253359892396e-02 9.179918645000207e-02 -6.195564670732046e-02 -2.999878658027567e-01 9.298564582046866e-02 -2.477601709142270e-01 -7.166929643181219e-01
            -2.476806051541075e-01 -7.165371831341074e-01 -3.000157556057133e-01 9.293689076024669e-02 9.221666048073097e-02 -6.562800321828162e-02 8.836069817683907e-02 -5.760068859015614e-02
            -3.000066852238461e-01 9.295364188284100e-02 -2.476662648504596e-01 -7.166262591009015e-01 8.830461900974873e-02 -5.757745722302830e-02 9.227999407580607e-02 -6.570038837296824e-02
86928273.5613010824 7.259897783315068e-02 -6.180127862978693e-02 7.013974106992171e-02 -5.868547205515654e-02 -3.578833050024798e-01 -6.698858466756317e-01 -2.854981859294260e-01 1.376173607221517e-01
            7.007240100832560e-02 -5.867874065477935e-02 7.265962832019998e-02 -6.186695424656236e-02 -2.854566243516737e-01 1.376754389696893e-01 -3.579312752225740e-01 -6.698395712753260e-01
            -3.580069836261714e-01 -6.699837315212924e-01 -2.855290497891075e-01 1.377054901876398e-01 7.300891764075707e-02 -6.496074924518899e-02 7.005742985988991e-02 -5.672003511514689e-02
            -2.854920787044848e-01 1.376314668775149e-01 -3.579687727682264e-01 -6.699565441539318e-01 7.000891714506356e-02 -5.667534174421665e-02 7.300601911527393e-02 -6.495733108253242e-02
87427856.5471225977 5.433350782457098e-02 -5.554436567038794e-02 5.207150519609834e-02 -5.190749130226275e-02 -4.599931313717107e-01 -6.055321203049298e-01 -2.645132558239109e-01 1.809519541779935e-01
            5.206928536287475e-02 -5.185243206610086e-02 5.436093788212037e-02 -5.566623886769442e-02 -2.646496096181015e-01 1.809001437434314e-01 -4.599015160450471e-01 -6.054838292537348e-01
            -4.599359505346909e-01 -6.054782128437513e-01 -2.646138149726688e-01 1.809002134527598e-01 5.484904042843364e-02 -5.822945395844898e-02 5.269152284063033e-02 -5.002285380412017e-02
            -2.645940815922073e-01 1.809359074845862e-01 -4.598906324171628e-01 -6.054829970446944e-01 5.259804501222405e-02 -4.998984754317046e-02 5.478625375826132e-02 -5.824663974538311e-02
87927439.5329441279 3.878809365319966e-02 -4.381737015118520e-02 3.697179403249303e-02 -3.957563963600475e-02 -5.503693308346185e-01 -5.247374880028842e-01 -2.369953946328865e-01 2.218425488339535e-01
            3.702374857187425e-02 -3.961608827144719e-02 3.883594726889111e-02 -4.384613267081157e-02 -2.369563388610527e-01 2.218369590254041e-01 -5.504412983361675e-01 -5.247621210505981e-01
            -5.504884116670481e-01 -5.247391664417841e-01 -2.369502326940997e-01 2.219046509143949e-01 3.960665122662570e-02 -4.590717977337797e-02 3.816633741459768e-02 -3.803135492075060e-02
            -2.369893890565243e-01 2.218247934796970e-01 -5.503944466733439e-01 -5.247613862560306e-01 3.815986698963723e-02 -3.798432984616819e-02 3.963535934181411e-02 -4.597382093580416e-02
88427022.5187656432 2.784050473758345e-02 -2.759326696190005e-02 2.651844779563203e-02 -2.307642495080986e-02 -6.263351793404202e-01 -4.299580223563896e-01 -2.024159489478348e-01 2.593232938729523e-01
            2.653533084491261e-02 -2.303120865970460e-02 2.783558267572715e-02 -2.756347277026546e-02 -2.024015186754679e-01 2.593468334695728e-01 -6.264126287745542e-01 -4.299829926273389e-01
            -6.263159479275310e-01 -4.300335536686388e-01 -2.023756074840404e-01 2.593049566714366e-01 2.915657274913408e-02 -2.936065350380947e-02 2.823448503298857e-02 -2.183744427831530e-02
            -2.023848140263945e-01 2.593097002515803e-01 -6.263939246000688e-01 -4.300017179429821e-01 2.817736507336520e-02 -2.179727436736728e-02 2.918296798717281e-02 -2.937334797557277e-02
88926605.5045871586 2.267316730396236e-02 -8.707975452067255e-03 2.188394036131728e-02 -3.887647037733748e-03 -6.853528643637435e-01 -3.239764794532631e-01 -1.610779024152707e-01 2.918293588678349e-01
            2.185751933219505e-02 -3.857926949252640e-03 2.268592289661739e-02 -8.704065433690013e-03 -1.609934813991341e-01 2.918226171789008e-01 -6.853675366773321e-01 -3.239606877473911e-01
            -6.853629749371841e-01 -3.239697052020801e-01 -1.611127301623259e-01 2.917720652242025e-01 2.468201264828912e-02 -1.028066763070406e-02 2.405636073503499e-02 -3.313704350609064e-03
            -1.609993723447214e-01 2.917503788082181e-01 -6.854185786511608e-01 -3.239963444530462e-01 2.406002967707264e-02 -3.313807080172941e-03 2.470194582817409e-02 -1.031009914359598e-02
89426188.4904086739 2.399723426981577e-02 1.087475535532313e-02 2.371455143986134e-02 1.578664076821522e-02 -7.258089712436354e-01 -2.102632442915973e-01 -1.135377316440873e-01 3.174725799300003e-01
            2.372996574367345e-02 1.578302573043700e-02 2.395437595693690e-02 1.088688428012278e-02 -1.134646253520506e-01 3.174919240328639e-01 -7.257645400465234e-01 -2.102125504470992e-01
            -7.257966472984504e-01 -2.101694115349424e-01 -1.135648224730944e-01 3.174730696834541e-01 2.664264495336650e-02 9.176407423725663e-03 2.606603530839807e-02 1.562359117757455e-02
            -1.135807442244476e-01 3.174757574281453e-01 -7.257894684258803e-01 -2.102523678406995e-01 2.614503972546621e-02 1.562738617985870e-02 2.662621566372615e-02 9.131872434777470e-03
89925771.4762301892 3.137459248311101e-02 2.885775087762180e-02 3.173640461580099e-02 3.363236478149603e-02 -7.466408410387771e-01 -9.229858909479975e-02 -6.122509859312512e-02 3.349323689323768e-01
            3.173570928203028e-02 3.379037754075530e-02 3.139742123789858e-02 2.881356305368725e-02 -6.126778640821447e-02 3.350344282890134e-01 -7.467144008992758e-01 -9.236202939373934e-02
            -7.466575308497754e-01 -9.240856615473091e-02 -6.116764355162996e-02 3.350037559954578e-01 3.475713859063480e-02 2.678204285143928e-02 3.409905422081812e-02 3.278620462319326e-02
            -6.117695115358702e-02 3.349960788436315e-01 -7.467396074604431e-01 -9.234371562115125e-02 3.416018802277647e-02 3.274794658537398e-02 3.476256528224062e-02 2.676380517422429e-02
90425354.4620517045 4.408701830484315e-02 4.326971199033327e-02 4.488894278725886e-02 4.795567680953908e-02 -7.481623010609594e-01 2.611085077278404e-02 -5.842689267393818e-03 3.430017402837190e-01
            4.488050841971385e-02 4.796444854871785e-02 4.411092775824157e-02 4.326781089956523e-02 -5.778712112698256e-03 3.430133289612143e-01 -7.481373331655139e-01 2.608114737511730e-02
            -7.481780436781758e-01 2.609453298503523e-02 -5.780976567436184e-03 3.429894678521250e-01 4.814310711728769e-02 4.076504809488177e-02 4.716630609025559e-02 4.619963353668259e-02
            -5.727864096807127e-03 3.429714083058832e-01 -7.482186111005831e-01 2.605824996411084e-02 4.714653859992886e-02 4.628012658304799e-02 4.812780902180867e-02 4.070394172886126e-02
90924937.4478732347 6.051338331219535e-02 5.282595656371720e-02 6.176506829768243e-02 5.723525385890094e-02 -7.311637441170871e-01 1.418055472619279e-01 5.067468925267257e-02 3.409329580704438e-01
            6.186408765582446e-02 5.722983796119627e-02 6.047676199734544e-02 5.284130555506478e-02 5.067603093103382e-02 3.409799091225629e-01 -7.312431482754821e-01 1.418677279102523e-01
            -7.311833741589346e-01 1.418128726581912e-01 5.067600953193390e-02 3.409853353756794e-01 6.508752517799093e-02 4.951040784981955e-02 6.365254580402094e-02 5.481974842962598e-02
            5.067097756702040e-02 3.409726882295263e-01 -7.311185578416663e-01 1.418070621956689e-01 6.368977866742229e-02 5.479712639067971e-02 6.498269542688939e-02 4.957222387753778e-02
91424520.4336947501 7.882656039495509e-02 5.662809920586269e-02 8.046207526316389e-02 6.072719220830974e-02 -6.967764461994010e-01 2.521196681538893e-01 1.058133708825949e-01 3.289609687299396e-01
            8.047108722659001e-02 6.076212522458983e-02 7.877147338500243e-02 5.662314977463708e-02 1.058035479393392e-01 3.289328505412230e-01 -6.968002451713997e-01 2.521341425001897e-01
            -6.967049123118341e-01 2.520647857372997e-01 1.058410903711456e-01 3.289852773797826e-01 8.362829092578068e-02 5.241384378074747e-02 8.179765471661864e-02 5.760387999569140e-02
            1.058641423844107e-01 3.289648397678889e-01 -6.967438718798620e-01 2.520544966768819e-01 8.171422564666873e-02 5.757173804070691e-02 8.365470720306063e-02 5.232634549239536e-02
91924103.4195162654 9.707202179542421e-02 5.450563722992439e-02 9.909701922803109e-02 5.828290749941140e-02 -6.466685644314106e-01 3.546843498617349e-01 1.576863826139213e-01 3.076043445736973e-01
            9.913250331086698e-02 5.823424145886640e-02 9.710408149913761e-02 5.454039041233988e-02 1.577209277410767e-01 3.075422041522756e-01 -6.466976168185072e-01 3.546253554060088e-01
            -6.466423246718249e-01 3.546463816089109e-01 1.577525785282497e-01 3.075064343290115e-01 1.020343838586264e-01 4.919199531530248e-02 9.957050594198573e-02 5.465291768579139e-02
            1.577103509105646e-01 3.075909722441776e-01 -6.466167657422315e-01 3.546241124515198e-01 9.951440131428972e-02 5.465169299788340e-02 1.019874126554537e-01 4.915941162908850e-02
92423686.4053377807 1.134687892095195e-01 4.706965757971818e-02 1.156875018257440e-01 5.030857839097546e-02 -5.824083627301896e-01 4.477034057651823e-01 2.045882513023513e-01 2.779201743631109e-01
            1.157221079937074e-01 5.034131064169315e-02 1.134496023564734e-01 4.709520254630280e-02 2.046058679615276e-01 2.779018474927977e-01 -5.824811715013425e-01 4.477575707283868e-01
            -5.825467741537482e-01 4.478093141394508e-01 2.046511092422220e-01 2.780148417555539e-01 1.184028032802977e-01 4.057615481847083e-02 1.153307697762300e-01 4.644430865101622e-02
            2.046726068883711e-01 2.779135735262326e-01 -5.825187547869897e-01 4.477669284570067e-01 1.153540591476135e-01 4.647664051072676e-02 1.182536533750543e-01 4.059466890773709e-02
92923269.3911592960 1.266559657802730e-01 3.518754386499395e-02 1.290111357864468e-01 3.777658152481678e-02 -5.058051390500513e-01 5.298559600541950e-01 2.454228280079037e-01 2.414240710736162e-01
            1.290015079960125e-01 3.785634908557550e-02 1.266258733934242e-01 3.518133668245935e-02 2.453786798498500e-01 2.414330236205081e-01 -5.058607692269240e-01 5.298661483238370e-01
            -5.058339649911929e-01 5.298063011166686e-01 2.454111262640007e-01 2.414273643251562e-01 1.311093011051558e-01 2.749316615429149e-02 1.276928227141713e-01 3.388869965283880e-02
            2.454415771376524e-01 2.415164026889484e-01 -5.058732227823379e-01 5.298362707499056e-01 1.276501561821664e-01 3.393384277640882e-02 1.310505911352170e-01 2.745594098853624e-02
93422852.3769808263 1.354734766308497e-01 2.000732049941444e-02 1.377812798775230e-01 2.205343633458132e-02 -4.185048962444809e-01 5.996338647882283e-01 2.792528457554866e-01 1.996882566249484e-01
            1.378198239872529e-01 2.207709457991289e-02 1.354383337056005e-01 1.987057978036291e-02 2.792785651655830e-01 1.996145392941387e-01 -4.184839451058344e-01 5.995906503908998e-01
            -4.186094398138875e-01 5.995868536236685e-01 2.793328341912945e-01 1.996671773885589e-01 1.391946313780818e-01 1.111319538990217e-02 1.356562311649904e-01 1.837681473428353e-02
            2.792614764188454e-01 1.996547251037281e-01 -4.185284082828742e-01 5.995523132891164e-01 1.356123415722487e-01 1.840843578416578e-02 1.393391839015657e-01 1.112385692164347e-02
93922435.3628023416 1.392333633386819e-01 2.874069221489422e-03 1.415374847652045e-01 4.525351099514652e-03 -3.219502419883751e-01 6.558465411759773e-01 3.058770556930011e-01 1.539259057362131e-01
            1.415742509880168e-01 4.520544880341299e-03 1.391745514327220e-01 2.987324328108270e-03 3.058250239491774e-01 1.539491035859701e-01 -3.220020435809418e-01 6.558409645788045e-01
            -3.219295085421540e-01 6.558197826461266e-01 3.058762192341797e-01 1.538744199474459e-01 1.421211085834844e-01 -6.868714665786898e-03 1.384072248742056e-01 1.184857222156887e-03
            3.058582648695433e-01 1.539227809398713e-01 -3.219606623761266e-01 6.558732164784407e-01 1.384788041181751e-01 1.185490943419431e-03 1.420285446173232e-01 -6.878216644864237e-03
94422018.3486238569 1.375633601805608e-01 -1.429925386592518e-02 1.397682687249601e-01 -1.318617477478793e-02 -2.179320409975607e-01 6.974933542696744e-01 3.250983548068648e-01 1.055804725401159e-01
            1.398800724037774e-01 -1.334148497097220e-02 1.375672023409447e-01 -1.430066645453969e-02 3.251950471365984e-01 1.056250605548486e-01 -2.179885973399655e-01 6.975411229758139e-01
            -2.179400578486487e-01 6.975357444093050e-01 3.251084640961497e-01 1.055752096853200e-01 1.393379045363317e-01 -2.502364351906889e-02 1.359273966117867e-01 -1.593906378902036e-02
            3.250555104592288e-01 1.056145328474536e-01 -2.179997504221367e-01 6.974732727099749e-01 1.359663057976758e-01 -1.598283493532887e-02 1.392981444665409e-01 -2.503280483785804e-02
94921601.3344453722 1.308599847291238e-01 -3.011675260249485e-02 1.328328891167683e-01 -2.970932436949591e-02 -1.083732889056394e-01 7.234112970886549e-01 3.372052166118002e-01 5.569965553345718e-02
            1.328897263428385e-01 -2.974418498406916e-02 1.307881000910628e-01 -3.014643879344634e-02 3.371659983750176e-01 5.562084635973596e-02 -1.083101441849058e-01 7.234769375689513e-01
            -1.083945285499283e-01 7.235021529124127e-01 3.371931676638403e-01 5.568142708670135e-02 1.311715577553577e-01 -4.154644208085389e-02 1.282697652016336e-01 -3.162157451388477e-02
            3.371537304193460e-01 5.563136364162621e-02 -1.083641629333576e-01 7.233869710035574e-01 1.283025557007012e-01 -3.165401925332804e-02 1.312680049837527e-01 -4.155888139688507e-02
95421184.3202668875 1.194574570422182e-01 -4.325702135866462e-02 1.211385392597479e-01 -4.340658951952629e-02 4.652613220892232e-03 7.326245237329282e-01 3.423013429284050e-01 4.779920779512326e-03
            1.212706741252487e-01 -4.329985362770944e-02 1.195000819420942e-01 -4.328869029313785e-02 3.423699710259153e-01 4.980247517935163e-03 4.611792640866814e-03 7.326887442607214e-01
            4.694471032538921e-03 7.326056910040384e-01 3.423746324285732e-01 4.870475646923510e-03 1.183842415820069e-01 -5.505301939027402e-02 1.162352608291480e-01 -4.433648720917864e-02
            3.423696999717155e-01 4.798689555349187e-03 4.674540646914475e-03 7.326046894840966e-01 1.162632355729884e-01 -4.436128699816968e-02 1.183184672256796e-01 -5.508714261775519e-02
95920767.3060884029 1.046067940344042e-01 -5.230555966102064e-02 1.058503752282154e-01 -5.286228138377941e-02 1.187807900406356e-01 7.244037353190206e-01 3.406754926902613e-01 -4.618800147296709e-02
            1.058471430390171e-01 -5.285040839511526e-02 1.045581082118316e-01 -5.237385044383447e-02 3.407449812830409e-01 -4.618968265917370e-02 1.186907054955792e-01 7.242613980388697e-01
            1.186936936757935e-01 7.243083274792168e-01 3.407118043472646e-01 -4.621565349471567e-02 1.017440897273349e-01 -6.415309002572300e-02 1.006236286172726e-01 -5.287411548370713e-02
            3.406668428968173e-01 -4.621785538160764e-02 1.188432888719954e-01 7.242684973473581e-01 1.006154034366151e-01 -5.290645390067381e-02 1.017549794462456e-01 -6.421809507194243e-02
96420350.2919099331 8.740098544161257e-02 -5.620648529055532e-02 8.821657165824290e-02 -5.726555130113498e-02 2.311358951856347e-01 6.979791979923099e-01 3.321370615131098e-01 -9.692432633166838e-02
            8.822518483777020e-02 -5.729717943098171e-02 8.749425156935116e-02 -5.627774219729355e-02 3.321245760310207e-01 -9.692979218537298e-02 2.311390088344201e-01 6.980165528667592e-01
            2.311467120075227e-01 6.980308217919791e-01 3.322018297414360e-01 -9.693388787689117e-02 8.296670333381140e-02 -6.790697947842655e-02 8.287497927786529e-02 -5.611215271064272e-02
            3.322434021675001e-01 -9.685049702587460e-02 2.311032348722059e-01 6.979679462967290e-01 8.296043350979421e-02 -5.610025185868719e-02 8.302330317244343e-02 -6.789188729314394e-02
96919933.2777314484 6.959438156049681e-02 -5.453093561594686e-02 6.989989906750270e-02 -5.573490068372715e-02 3.387318046030916e-01 6.536764377509335e-01 3.167188962899603e-01 -1.468247568035153e-01
            6.992683941210828e-02 -5.588024179048350e-02 6.976855951323097e-02 -5.452953977665119e-02 3.167015718035448e-01 -1.467646566662730e-01 3.387486448706445e-01 6.536441299845529e-01
            3.387388718120020e-01 6.537484772384479e-01 3.166314525633415e-01 -1.468222054024100e-01 6.363648313656679e-02 -6.557937653860545e-02 6.498578055613874e-02 -5.371722597247686e-02
            3.166795925743630e-01 -1.468091745122708e-01 3.387056149974106e-01 6.536659065363575e-01 6.485062284988977e-02 -5.372250936919057e-02 6.365346090877939e-02 -6.551457732915833e-02
97419516.2635529637 5.320271842644813e-02 -4.711558026638930e-02 5.280241656542464e-02 -4.869325889040969e-02 4.383308997804968e-01 5.920632798427234e-01 2.938306888450002e-01 -1.950503266863264e-01
            5.280219405382826e-02 -4.866111666523475e-02 5.330815116621285e-02 -4.713532207215241e-02 2.938824445751239e-01 -1.950791306331801e-01 4.383294126608369e-01 5.921189214414335e-01
            4.383484383170246e-01 5.921412396931733e-01 2.938418257185397e-01 -1.950023775911638e-01 4.578836803704069e-02 -5.725675519900979e-02 4.823344753814241e-02 -4.555299106247023e-02
            2.938929065231708e-01 -1.949789188919062e-01 4.383006554438849e-01 5.921006669293981e-01 4.831513231720891e-02 -4.545600502648187e-02 4.576054982947249e-02 -5.723230959308336e-02
97919099.2493744791 3.998406659609517e-02 -3.459983460079345e-02 3.885968146432790e-02 -3.625906990064045e-02 5.267365993849227e-01 5.146510166960873e-01 2.633575778954976e-01 -2.406611838033272e-01
            3.880127074233337e-02 -3.630769610165870e-02 3.995805260152874e-02 -3.460734150254944e-02 2.633874820130294e-01 -2.406337922613725e-01 5.267447362504903e-01 5.146398217136446e-01
            5.267693889257872e-01 5.146338627097562e-01 2.633907359070604e-01 -2.406141485865700e-01 3.129735117203199e-02 -4.370435432621882e-02 3.502129977522401e-02 -3.229705294451952e-02
            2.634617841077226e-01 -2.406636412994519e-01 5.267650587725894e-01 5.146305359782231e-01 3.515439809368853e-02 -3.229859513251616e-02 3.130486010856721e-02 -4.362657499820791e-02
98418682.2351959944 3.134274457837456e-02 -1.833318096222562e-02 2.954114942625352e-02 -2.008703000248709e-02 6.010635364192398e-01 4.234366165941524e-01 2.252780946881799e-01 -2.820966858655811e-01
            2.957432883043648e-02 -2.011358566764139e-02 3.136856881316086e-02 -1.829902301704725e-02 2.252992513459924e-01 -2.821249773906227e-01 6.009886376071479e-01 4.233806601814263e-01
            6.011148948764382e-01 4.234200495315950e-01 2.252758889305861e-01 -2.821243724908890e-01 2.180198936662026e-02 -2.589553067918920e-02 2.664988216691405e-02 -1.541010128675527e-02
            2.253269284990885e-01 -2.821319149365654e-01 6.010527675171844e-01 4.234531575369596e-01 2.672025458981309e-02 -1.542708833759643e-02 2.179144669220453e-02 -2.595512609577834e-02
98918265.2210175097 2.858797413003740e-02 2.281477072942262e-05 2.600324633665427e-02 -1.610440787209212e-03 6.590833965442227e-01 3.214513264681351e-01 1.797385967910736e-01 -3.177397678445100e-01
            2.599862107769568e-02 -1.647047444036170e-03 2.858362787450547e-02 -5.004241782964358e-07 1.797167849394536e-01 -3.177421912554746e-01 6.589789219261432e-01 3.213755425357766e-01
            6.590749639503531e-01 3.214794010927524e-01 1.797872852595654e-01 -3.177363550110335e-01 1.840790489892298e-02 -6.094691725498996e-03 2.422729818938579e-02 3.441138681194029e-03
            1.796821033177143e-01 -3.177149356901432e-01 6.590405806155547e-01 3.213950014940818e-01 2.424827853857131e-02 3.452338128969256e-03 1.843981047216016e-02 -6.095960106595457e-03
99417848.2068390399 3.192099674133849e-02 1.830596142354992e-02 2.865786923748277e-02 1.681885626883831e-02 6.989786625242302e-01 2.119371032454345e-01 1.276579635708458e-01 -3.458441627574181e-01
            2.865675575403138e-02 1.687730927651171e-02 3.189968333378326e-02 1.836001366400754e-02 1.276412894141534e-01 -3.457907913189700e-01 6.989163071209199e-01 2.118182246582737e-01
            6.989586562894107e-01 2.119143691191804e-01 1.277313964194959e-01 -3.457790694445936e-01 2.156544645685275e-02 1.378301735353255e-02 2.807812333643054e-02 2.215418993180483e-02
            1.276637958800357e-01 -3.458925646823526e-01 6.989379239548401e-01 2.118714747815976e-01 2.807314868376471e-02 2.209921021172542e-02 2.158502484157094e-02 1.377257189677816e-02
99917431.1926605552 4.114888361776834e-02 3.454784983655228e-02 3.711664007834212e-02 3.333156979831627e-02 7.201926780418194e-01 9.839450477096071e-02 7.043862308733131e-02 -3.648712692251928e-01
            3.708330833187355e-02 3.338637463878658e-02 4.104558437597856e-02 3.453268979519922e-02 7.048383320427866e-02 -3.648165350260975e-01 7.201660121485307e-01 9.849005111494735e-02
            7.201993855311840e-01 9.846839324477473e-02 7.053187772659274e-02 -3.648079325441552e-01 3.079493982103646e-02 3.146391383944184e-02 3.774461609107103e-02 3.850317408794563e-02
            7.049158620976259e-02 -3.648029269939071e-01 7.202244042674780e-01 9.847642537999721e-02 3.761381369336809e-02 3.853635873613086e-02 3.075509886395346e-02 3.135040242035936e-02
100417014.1784820706 5.492879534355175e-02 4.691783120386597e-02 5.030531902807957e-02 4.621046039322138e-02 7.228822698362816e-01 -1.557167381567627e-02 1.035378969966507e-02 -3.735256521588349e-01
            5.025166462525828e-02 4.616076038889189e-02 5.496420510359554e-02 4.695236709235111e-02 1.030620242198405e-02 -3.735425574686335e-01 7.229693729635883e-01 -1.558724822928477e-02
            7.229558693747340e-01 -1.558520078699508e-02 1.029686373136991e-02 -3.735082608292107e-01 4.503266063837402e-02 4.514119475005957e-02 5.192128814437463e-02 5.091614961801715e-02
            1.025653470992973e-02 -3.735547686883395e-01 7.229191416322148e-01 -1.557714499109061e-02 5.202922932148663e-02 5.088333612929623e-02 4.498391278954881e-02 4.513933860263571e-02
100916597.1643035859 7.184957622253953e-02 5.418920065387561e-02 6.676910143191020e-02 5.400241542224182e-02 7.078555338758334e-01 -1.272238133355900e-01 -5.078565559208058e-02 -3.715182749994296e-01
            6.666113318786779e-02 5.398356663716380e-02 7.187576925685403e-02 5.426114606800509e-02 -5.076210098084528e-02 -3.714419187876776e-01 7.078515710259119e-01 -1.272130720793106e-01
            7.078841891899053e-01 -1.271645761624808e-01 -5.077262852048789e-02 -3.715150029703509e-01 6.262655955660285e-02 5.348941928813009e-02 6.936233682661493e-02 5.801796681344978e-02
            -5.079101211773063e-02 -3.714626275302550e-01 7.078883600476051e-01 -1.272194301391647e-01 6.940123857180058e-02 5.798631984165990e-02 6.259687330619501e-02 5.351427179383904e-02
101416180.1501251012 9.004955874074669e-02 5.577622235584791e-02 8.451202960575761e-02 5.616251291814075e-02 6.761902503533327e-01 -2.338259715058221e-01 -1.103592301193990e-01 -3.588514583299168e-01
            8.453440570737968e-02 5.616976033886017e-02 9.005401246762494e-02 5.583121798085912e-02 -1.104698420834862e-01 -3.587934889236826e-01 6.762561727794641e-01 -2.339217626216383e-01
            6.761518239114626e-01 -2.338843276283154e-01 -1.104820108156444e-01 -3.587888358839668e-01 8.160731772391965e-02 5.597980369655523e-02 8.783900631923880e-02 5.926986009555048e-02
            -1.104861452157943e-01 -3.588625035689172e-01 6.762030475609121e-01 -2.338038931238784e-01 8.778868942014760e-02 5.920251063767231e-02 8.158406786347955e-02 5.591387042691719e-02
101915763.1359466314 1.077288458213762e-01 5.167979881666050e-02 1.018477442999556e-01 5.272683805708115e-02 6.293921892537335e-01 -3.333194995676854e-01 -1.666426613584696e-01 -3.362402642688478e-01
            1.018457492467843e-01 5.265987643682207e-02 1.077358257333014e-01 5.170564320448436e-02 -1.666283218185685e-01 -3.361578400042304e-01 6.294396499798229e-01 -3.333525737294747e-01
            6.294420884186318e-01 -3.333297591018775e-01 -1.666885810431201e-01 -3.362018422241677e-01 1.001746318702550e-01 5.247146460442845e-02 1.056714232604841e-01 5.483986721718409e-02
            -1.666534287866857e-01 -3.361798336501171e-01 6.294223217045603e-01 -3.333196969516803e-01 1.056329386782699e-01 5.473936190258652e-02 1.001797083582756e-01 5.245549466728307e-02
102415346.1217681468 1.231134334517634e-01 4.251079879648711e-02 1.171309945961850e-01 4.422806988551849e-02 5.689615316280736e-01 -4.239676187026263e-01 -2.176463747746346e-01 -3.047549386435410e-01
            1.171007137628105e-01 4.421033023066783e-02 1.232131297991320e-01 4.247207819364746e-02 -2.175796760533716e-01 -3.047561496225470e-01 5.689905213394708e-01 -4.240174185498360e-01
            5.690149862354360e-01 -4.239333514380008e-01 -2.176333912323621e-01 -3.048028287510990e-01 1.164760942416620e-01 4.362896445179288e-02 1.209667820326734e-01 4.509859281063913e-02
            -2.176184923372785e-01 -3.047806574315508e-01 5.689747369029401e-01 -4.239646104129536e-01 1.210423498575880e-01 4.516176025326146e-02 1.165282060681383e-01 4.357624686740040e-02
102914929.1075896621 1.350590554973077e-01 2.916513550742949e-02 1.288737685343248e-01 3.159535894240145e-02 4.963957474306073e-01 -5.043279795548925e-01 -2.620567877145001e-01 -2.660841530156707e-01
            1.289408999705031e-01 3.148396478740431e-02 1.349985780596792e-01 2.908373383498884e-02 -2.622140641040341e-01 -2.659784974011905e-01 4.963926427992515e-01 -5.044037645819525e-01
            4.964121208864687e-01 -5.042974197722953e-01 -2.621364386472858e-01 -2.660793221897386e-01 1.292786435551071e-01 3.043043507755123e-02 1.326801310508857e-01 3.135904770958564e-02
            -2.620875746344938e-01 -2.660621495547519e-01 4.963791435603614e-01 -5.044329234986489e-01 1.326778213229198e-01 3.133128808808811e-02 1.292439811168851e-01 3.032954956073981e-02
103414512.0934111774 1.423209455649461e-01 1.296317578847686e-02 1.362776791175469e-01 1.604257595694230e-02 4.132514094235046e-01 -5.730311824104987e-01 -2.993930125590413e-01 -2.215759722674910e-01
            1.364198076307672e-01 1.600304271622103e-02 1.423187879394614e-01 1.304813031789056e-02 -2.994260139390992e-01 -2.214967761366045e-01 4.132198207615209e-01 -5.731246305069297e-01
            4.132040899443183e-01 -5.731238880161219e-01 -2.993659362010068e-01 -2.215005537375483e-01 1.374061779593158e-01 1.412609290480477e-02 1.396406195700898e-01 1.486387528421424e-02
            -2.994030936824661e-01 -2.214902921349264e-01 4.131936798337432e-01 -5.731222087224076e-01 1.396893447784456e-01 1.492310574180763e-02 1.374122684278896e-01 1.405312493101303e-02
103914095.0792326927 1.443312543139036e-01 -4.476917512127148e-03 1.386134882650788e-01 -9.176307954930573e-04 3.208321534894054e-01 -6.290996761644359e-01 -3.290240821864774e-01 -1.726325155194396e-01
            1.386782542804593e-01 -8.846663168865049e-04 1.444028776116610e-01 -4.448388813450342e-03 -3.290503995016842e-01 -1.725647057658885e-01 3.209633239762603e-01 -6.290768568387063e-01
            3.208468992557876e-01 -6.290899642732573e-01 -3.290182110236015e-01 -1.725262104495656e-01 1.402402862272584e-01 -3.752863290994745e-03 1.412842892649653e-01 -2.883147113747161e-03
            -3.290072056616804e-01 -1.725544397612469e-01 3.208758995388377e-01 -6.291099560541153e-01 1.413607393355266e-01 -2.917667154207736e-03 1.401308460007309e-01 -3.783108153930716e-03
104413678.0650542080 1.412964175219966e-01 -2.166488819298708e-02 1.357470310528285e-01 -1.781592030317727e-02 2.210027791834549e-01 -6.710384601668221e-01 -3.508971184964219e-01 -1.206201814480449e-01
            1.357706181602547e-01 -1.780636606085835e-02 1.413092971744580e-01 -2.173640501836989e-02 -3.508872135308715e-01 -1.205801236779346e-01 2.210173356766384e-01 -6.710585972468039e-01
            2.209572944702841e-01 -6.709991792430420e-01 -3.507537436324205e-01 -1.205447386181914e-01 1.375653727323717e-01 -2.156139969756297e-02 1.376424287443867e-01 -2.045279700245069e-02
            -3.508420012250918e-01 -1.206341120766224e-01 2.209048022874016e-01 -6.710773032044445e-01 1.375364163832644e-01 -2.040284019101257e-02 1.375704585304239e-01 -2.156029286963988e-02
104913261.0508757383 1.331478573408262e-01 -3.744656190311120e-02 1.278990506742742e-01 -3.306489360503394e-02 1.153014043079571e-01 -6.978318865533000e-01 -3.650911186784968e-01 -6.656787518144702e-02
            1.279678795769910e-01 -3.311403294715676e-02 1.332228055094155e-01 -3.739009019355127e-02 -3.650477077424935e-01 -6.659262990683530e-02 1.153371015011418e-01 -6.978558620290628e-01
            1.152787268932152e-01 -6.979031848892695e-01 -3.650198874082125e-01 -6.650550723434118e-02 1.296243695707382e-01 -3.786353562649009e-02 1.288542378490770e-01 -3.608513827912742e-02
            -3.650812147373896e-01 -6.658689106903816e-02 1.152927242606664e-01 -6.978711823298875e-01 1.288384814887175e-01 -3.610163574656072e-02 1.296840105258943e-01 -3.789342802028393e-02
105412844.0366972536 1.206615867656253e-01 -4.989018085341516e-02 1.157731668972628e-01 -4.538980880515680e-02 5.973641852283480e-03 -7.085108532918174e-01 -3.716725249738103e-01 -1.148912212513845e-02
            1.157738141610862e-01 -4.535162593390597e-02 1.207241221292904e-01 -4.986551549677370e-02 -3.716326736273985e-01 -1.142323012482989e-02 5.992933174120821e-03 -7.084616768586247e-01
            5.986754190695299e-03 -7.084555483693753e-01 -3.716771755803518e-01 -1.141536209622905e-02 1.172203298578092e-01 -5.105028282824589e-02 1.155557893162566e-01 -4.846491651973114e-02
            -3.715971045352565e-01 -1.141802880437842e-02 6.060601391675844e-03 -7.084583117477742e-01 1.156730679882976e-01 -4.844155911845150e-02 1.171554027124735e-01 -5.111244048856087e-02
105912427.0225187689 1.049965952457314e-01 -5.813025266041279e-02 1.003099118151529e-01 -5.339276034006893e-02 -1.046237591737858e-01 -7.020655012562005e-01 -3.706481341259804e-01 4.421382489349458e-02
            1.002721841135263e-01 -5.340334911281049e-02 1.049358002279654e-01 -5.815976254637739e-02 -3.708290422578033e-01 4.427884414373935e-02 -1.047546560495919e-01 -7.019226929902641e-01
            -1.046547816072710e-01 -7.019969307828374e-01 -3.707618924461307e-01 4.426760396961846e-02 1.011444533609151e-01 -5.985844719154539e-02 9.909043840280367e-02 -5.625516284749302e-02
            -3.708581697815858e-01 4.426831408855508e-02 -1.046513150201304e-01 -7.019875806291235e-01 9.912299363531819e-02 -5.634472558439638e-02 1.011789344505899e-01 -5.997710423298377e-02
106412010.0083402842 8.721296262827521e-02 -6.108793066036604e-02 8.281894736759178e-02 -5.641934651458160e-02 -2.139038721032407e-01 -6.780767303204733e-01 -3.623163257700011e-01 9.979735991878318e-02
            8.278984823275427e-02 -5.639628317906754e-02 8.722330331062415e-02 -6.106910812382473e-02 -3.622279865376550e-01 9.985358786997053e-02 -2.139185853775648e-01 -6.780907116689615e-01
            -2.139508710866074e-01 -6.780281409051575e-01 -3.623021269495585e-01 9.975662976190369e-02 8.294101867207318e-02 -6.332268715146189e-02 8.075271579753310e-02 -5.877189173179518e-02
            -3.623207736405460e-01 9.978775037219799e-02 -2.138838269258721e-01 -6.780818362948030e-01 8.069217377975654e-02 -5.879529718289970e-02 8.292230677896915e-02 -6.346685213754268e-02
106911592.9941617996 6.942565158511861e-02 -5.844280332290591e-02 6.519754645425237e-02 -5.375338473638477e-02 -3.186413184337171e-01 -6.365816795230913e-01 -3.459616457948710e-01 1.543343396101906e-01
            6.515975431348441e-02 -5.375075052265154e-02 6.941164609055406e-02 -5.831781431663782e-02 -3.459741458989484e-01 1.543669724826886e-01 -3.185921397743510e-01 -6.364940840238918e-01
            -3.187145946913144e-01 -6.364643537838078e-01 -3.459963474966958e-01 1.544094339239407e-01 6.445167577991744e-02 -6.109647536031775e-02 6.224936466578930e-02 -5.546544383957322e-02
            -3.459787255521802e-01 1.544314627025287e-01 -3.186119557526879e-01 -6.366062024451866e-01 6.229145649424529e-02 -5.541995766782249e-02 6.436505611702487e-02 -6.102394207982477e-02
107411175.9799833149 5.318462465658281e-02 -5.013790950098974e-02 4.898803278370488e-02 -4.554543910033011e-02 -4.157544038083650e-01 -5.780912513421412e-01 -3.215372506529161e-01 2.072796903999334e-01
            4.915411861532536e-02 -4.557344428324868e-02 5.323473141860813e-02 -5.010420174893297e-02 -3.215912437275612e-01 2.072676515677374e-01 -4.157376878925588e-01 -5.780583562317294e-01
            -4.158330358546273e-01 -5.781239632110124e-01 -3.215457887017771e-01 2.072206458853530e-01 4.742263592518842e-02 -5.296218520193489e-02 4.563327593007060e-02 -4.641765861653186e-02
            -3.215093768658443e-01 2.072837414173063e-01 -4.157973307904658e-01 -5.781404447022539e-01 4.557309111211280e-02 -4.639369821885723e-02 4.742891798181994e-02 -5.290835185775482e-02
107910758.9658048451 4.046759722025994e-02 -3.709231673537936e-02 3.638218549792931e-02 -3.263752015871277e-02 -5.021625707576908e-01 -5.040988249745116e-01 -2.886788476530686e-01 2.569684655234079e-01
            3.644842153083262e-02 -3.255782236501302e-02 4.045613668883814e-02 -3.700850567410931e-02 -2.887584861870943e-01 2.570649054011052e-01 -5.021585159878087e-01 -5.040955412064843e-01
            -5.021615719595174e-01 -5.041456482212735e-01 -2.887482725030838e-01 2.570869389262008e-01 3.373138979720251e-02 -3.969709566894930e-02 3.263575290501492e-02 -3.237323365672334e-02
            -2.887310941323132e-01 2.570338483996981e-01 -5.022242957423889e-01 -5.040343857064936e-01 3.243830955140002e-02 -3.237889075974900e-02 3.385589283841492e-02 -3.971877646376216e-02
108410341.9516263604 3.266717355825298e-02 -2.049789535093411e-02 2.839519274922618e-02 -1.613520015297091e-02 -5.750606346412175e-01 -4.167755754388145e-01 -2.475575370336941e-01 3.021629661941613e-01
            2.837945620124215e-02 -1.604130234461289e-02 3.255407568737846e-02 -2.046380667558423e-02 -2.474463855890059e-01 3.021423410678377e-01 -5.750015583089602e-01 -4.168308897634910e-01
            -5.750328737183088e-01 -4.168896138545253e-01 -2.475921226628987e-01 3.021984159375149e-01 2.506462187748647e-02 -2.274486298475021e-02 2.467082624327384e-02 -1.476197698778921e-02
            -2.475376523029903e-01 3.022163473576066e-01 -5.750726374421058e-01 -4.167807385804196e-01 2.460942616842038e-02 -1.481215131707196e-02 2.510874172049238e-02 -2.280083508426622e-02
108909924.9374478757 3.067346224206024e-02 -2.238812673843148e-03 2.618939622861468e-02 2.061180365866846e-03 -6.320687345209263e-01 -3.189387901552783e-01 -1.984412978718031e-01 3.409196178343582e-01
            2.618623243922611e-02 2.091751933531727e-03 3.059576266688760e-02 -2.272958424302504e-03 -1.984900614010694e-01 3.410021463873240e-01 -6.320616496836654e-01 -3.188836140286909e-01
            -6.321261580918143e-01 -3.188370248726513e-01 -1.984553497706714e-01 3.409244477396114e-01 2.229118660891421e-02 -3.943168184474643e-03 2.270399881282575e-02 4.533796074821202e-03
            -1.984434812352791e-01 3.410171575534613e-01 -6.320739882345953e-01 -3.189367818659403e-01 2.266271307806150e-02 4.493953247021366e-03 2.232124119856261e-02 -3.897337230033441e-03
109409507.9232693911 3.475119703916726e-02 1.551673485862381e-02 2.994949387292718e-02 1.997370152726936e-02 -6.718850330664399e-01 -2.136783875866711e-01 -1.424722506346209e-01 3.714328293432939e-01
            2.989986319766295e-02 1.999419482165998e-02 3.468203046444521e-02 1.558366821569897e-02 -1.424089319423378e-01 3.714379324112428e-01 -6.717842012026242e-01 -2.137589855813947e-01
            -6.717619074305378e-01 -2.137086183554110e-01 -1.424396687011508e-01 3.714423185455905e-01 2.574418230334193e-02 1.471762329387955e-02 2.704640858221167e-02 2.338852383674084e-02
            -1.424633074975169e-01 3.714611411662113e-01 -6.718119987107609e-01 -2.137622690261120e-01 2.710668170840430e-02 2.338753201124556e-02 2.575511811365588e-02 1.466016024320670e-02
109909090.9090909064 4.423936959512084e-02 3.094689368378440e-02 3.932088150567241e-02 3.550631311467274e-02 -6.936550001817753e-01 -1.046027210080154e-01 -8.115832646970500e-02 3.922061550728498e-01
            3.930661278192376e-02 3.556793007316935e-02 4.435671425497340e-02 3.096111709155417e-02 -8.112897381932462e-02 3.922384050863199e-01 -6.936842965995433e-01 -1.045934998286536e-01
            -6.935207336763471e-01 -1.046736538542274e-01 -8.116005959162007e-02 3.921937974273691e-01 3.493951930210236e-02 3.116537062476906e-02 3.727937234160338e-02 3.967539123348074e-02
            -8.116932294302137e-02 3.921469110865612e-01 -6.936332628098066e-01 -1.046060418820104e-01 3.719471344506089e-02 3.979748456784317e-02 3.491017276282413e-02 3.120624442664889e-02
110408673.8949124217 5.827400141765884e-02 4.241805392889080e-02 5.305579242997095e-02 4.710764074153796e-02 -6.977358636696673e-01 5.259402194712503e-03 -1.658106399903991e-02 4.020387961348429e-01
            5.298657843588888e-02 4.716828791848916e-02 5.822489170246840e-02 4.228186695955311e-02 -1.653222383632551e-02 4.019858697759777e-01 -6.977034999946216e-01 5.238062593194138e-03
            -6.976911742222132e-01 5.257745834911887e-03 -1.659309599203156e-02 4.019515984401817e-01 4.867477503782296e-02 4.357068197801223e-02 5.191785203343748e-02 5.188608005003371e-02
            -1.660330245860516e-02 4.020246984436575e-01 -6.977159867166342e-01 5.241513617645343e-03 5.195287683444156e-02 5.189606899436695e-02 4.876195170705157e-02 4.356446048407959e-02
110908256.8807339519 7.500069847589698e-02 4.859275960203534e-02 6.939494539418746e-02 5.389369553685251e-02 -6.846350545204792e-01 1.129473233077015e-01 4.883833076623840e-02 4.004325399226859e-01
            6.948531231190752e-02 5.377697189239115e-02 7.499740986262633e-02 4.851763134713918e-02 4.872778525089544e-02 4.003998910284838e-01 -6.845945393740349e-01 1.128906802556097e-01
            -6.846012194216282e-01 1.129675524544113e-01 4.888280855873458e-02 4.005098035733485e-01 6.545428229668181e-02 5.086769459004456e-02 6.958270878635321e-02 5.877623930417165e-02
            4.886255902865276e-02 4.004317394019455e-01 -6.847034099979042e-01 1.129709403232522e-01 6.960243422566306e-02 5.878735710451767e-02 6.555020651828256e-02 5.086410993148599e-02
111407839.8665554672 9.272224338383216e-02 4.909753457512272e-02 8.694583866339271e-02 5.482314114714145e-02 -6.555963405721744e-01 2.161432689389349e-01 1.127838364470527e-01 3.875377959283446e-01
            8.686669745539707e-02 5.490616158059929e-02 9.266199716117829e-02 4.911743327681213e-02 1.127871216182283e-01 3.875890686789726e-01 -6.556599951704805e-01 2.161526578600521e-01
            -6.555850459895558e-01 2.160515021282420e-01 1.127778916173430e-01 3.875785645276457e-01 8.342119555741910e-02 5.253784105703573e-02 8.810515125638982e-02 5.962932224270109e-02
            1.128100591476484e-01 3.876462200806269e-01 -6.556542219404240e-01 2.161399670199202e-01 8.823623290748608e-02 5.966557489959306e-02 8.335687348994963e-02 5.243876642290546e-02
111907422.8523769826 1.094831549391475e-01 4.414430828433794e-02 1.035909280992165e-01 5.047684484406224e-02 -6.120035880588341e-01 3.126210632677195e-01 1.732559943737515e-01 3.642147032271176e-01
            1.036454130817397e-01 5.048839158575783e-02 1.094361996511546e-01 4.421350718668738e-02 1.732437055992512e-01 3.642164484521468e-01 -6.120151315094787e-01 3.126677531525441e-01
            -6.119573230520597e-01 3.127034343560886e-01 1.731187126917551e-01 3.642506003428918e-01 1.006690541619616e-01 4.850871170465045e-02 1.059225585634666e-01 5.493271896102107e-02
            1.731748869377295e-01 3.641631698898884e-01 -6.120525362314720e-01 3.126876323515660e-01 1.058584906398730e-01 5.487960361599384e-02 1.006812664585444e-01 4.852429971270096e-02
112407005.8381984979 1.237795520471360e-01 3.426458414666018e-02 1.179334469701804e-01 4.119515231193965e-02 -5.551089105800446e-01 4.010363984018153e-01 2.281918920876674e-01 3.315425570574854e-01
            1.179213664477797e-01 4.123914638413696e-02 1.237331708052626e-01 3.428479611151775e-02 2.282233132563606e-01 3.316147140836671e-01 -5.550882087550902e-01 4.009820227674181e-01
            -5.550883890768123e-01 4.010295817143961e-01 2.282680014889223e-01 3.316803748430769e-01 1.156224024335785e-01 3.957985948249258e-02 1.211508563935643e-01 4.499627319063790e-02
            2.282441335209975e-01 3.315110325555317e-01 -5.551076699041183e-01 4.010137647726899e-01 1.211186374957062e-01 4.504752724655554e-02 1.156186889658099e-01 3.952001256097588e-02
112906588.8240200132 1.342130697139857e-01 2.065154233141128e-02 1.285605192565505e-01 2.825670622467279e-02 -4.863453538708654e-01 4.796938181497247e-01 2.766571841450644e-01 2.910597052521506e-01
            1.286667682152367e-01 2.819856734186794e-02 1.342668425312148e-01 2.061959018382459e-02 2.767038491741011e-01 2.909995943026776e-01 -4.862551678800520e-01 4.796541620941639e-01
            -4.863078289310942e-01 4.797098024974388e-01 2.766978828129056e-01 2.910415816504789e-01 1.269388699987800e-01 2.657608335572884e-02 1.326390123963948e-01 3.118993091844047e-02
            2.766850801307479e-01 2.910346390366193e-01 -4.863100239493197e-01 4.797409897054486e-01 1.325614467747141e-01 3.121063820979346e-02 1.269291268226906e-01 2.658909184842991e-02
113406171.8098415434 1.401251876406842e-01 4.457021810163228e-03 1.348466746339970e-01 1.272390235729561e-02 -4.069583533936530e-01 5.474366417408120e-01 3.175617707214634e-01 2.441505491730970e-01
            1.348279703166627e-01 1.271727042308830e-02 1.401396178174341e-01 4.423494332691738e-03 3.177125895755143e-01 2.441746989281523e-01 -4.070097551514223e-01 5.474409172143976e-01
            -4.070231773949357e-01 5.474258121469692e-01 3.176515975042775e-01 2.440541779906407e-01 1.337083956185202e-01 1.091189356178053e-02 1.392973858285680e-01 1.469939652684409e-02
            3.175552878909932e-01 2.440338127399222e-01 -4.069213858185904e-01 5.474414840193786e-01 1.392740181156172e-01 1.468322144713695e-02 1.337354589051338e-01 1.093043664832545e-02
113905754.7956630588 1.408401254235132e-01 -1.274456841644109e-02 1.360477704075933e-01 -3.905098045887862e-03 -3.185648758518670e-01 6.029017758006249e-01 3.505629712671897e-01 1.923229991097494e-01
            1.361012176249194e-01 -3.919349389010171e-03 1.408793433364260e-01 -1.274720257889315e-02 3.505957839970260e-01 1.923391537117722e-01 -3.185568207015685e-01 6.029068664018263e-01
            -3.185140122746028e-01 6.029234475128021e-01 3.505769084798454e-01 1.922817194138997e-01 1.354676162019575e-01 -6.009639228342409e-03 1.406962454535258e-01 -3.037103350263303e-03
            3.506165776058195e-01 1.923290874175231e-01 -3.186409948935108e-01 6.029081385525616e-01 1.407303863320483e-01 -3.007918238990638e-03 1.354601031874715e-01 -5.968466116046694e-03
114405337.7814845741 1.364042903546417e-01 -2.944659963516319e-02 1.321854730853899e-01 -2.004950482888685e-02 -2.226167327549884e-01 6.448782270505284e-01 3.753645779756913e-01 1.368596202519574e-01
            1.321942208025977e-01 -2.005079673988845e-02 1.364871833781771e-01 -2.947542605403101e-02 3.753919046228718e-01 1.368331138933163e-01 -2.225244193873486e-01 6.450049707321611e-01
            -2.225518504871445e-01 6.448678751817862e-01 3.754295206205104e-01 1.368819344704632e-01 1.319717676397513e-01 -2.253961157348673e-02 1.367638815170224e-01 -2.020221512638704e-02
            3.753819710376265e-01 1.369111393567874e-01 -2.225785667218115e-01 6.449420805131284e-01 1.367060883367319e-01 -2.025437290483181e-02 1.319620603874927e-01 -2.255541238132642e-02
114904920.7673060894 1.271630723358206e-01 -4.401982257590429e-02 1.236826864519850e-01 -3.439151439998487e-02 -1.206668693088078e-01 6.722716535565412e-01 3.919628601314529e-01 7.888570030332424e-02
            1.235769418970864e-01 -3.442248862258641e-02 1.271364867856944e-01 -4.410757193703479e-02 3.919711868300932e-01 7.888639388476004e-02 -1.205823215404302e-01 6.723315891583804e-01
            -1.206238502052647e-01 6.723079181091272e-01 3.920299553739939e-01 7.887866121584591e-02 1.236182837623092e-01 -3.733828545683034e-02 1.277959144693018e-01 -3.553037501013183e-02
            3.920312925864169e-01 7.892622599512747e-02 -1.207138974453504e-01 6.722974497924735e-01 1.277587500661621e-01 -3.556099845323649e-02 1.236194012923549e-01 -3.723122817248280e-02
115404503.7531276047 1.136351422826006e-01 -5.532555077837641e-02 1.109392723843496e-01 -4.549797436974208e-02 -1.497806456339104e-02 6.840050296762247e-01 4.003691498431024e-01 1.926647535256916e-02
            1.108868255829530e-01 -4.548274115636991e-02 1.137535145891923e-01 -5.538379743646257e-02 4.003845651129550e-01 1.925074309211769e-02 -1.498376443657935e-02 6.839076909499118e-01
            -1.499035299871206e-02 6.840160242455200e-01 4.003955311747163e-01 1.929847441373218e-02 1.110286289354931e-01 -4.879794785455108e-02 1.146595504769606e-01 -4.753644500115820e-02
            4.004363506870607e-01 1.931175862837032e-02 -1.507921851310498e-02 6.839824736309462e-01 1.145281494014884e-01 -4.745260394638990e-02 1.110657408876990e-01 -4.875314500507778e-02
115904086.7389491200 9.739096394195727e-02 -6.211148952441162e-02 9.515618942366846e-02 -5.221670369039978e-02 9.218996698176632e-02 6.790128673260153e-01 4.005705175861761e-01 -4.113395067694073e-02
            9.520891165704512e-02 -5.220261548211437e-02 9.730175752131309e-02 -6.213061975299197e-02 4.005026941317413e-01 -4.110351669332058e-02 9.223428424847713e-02 6.789822288123212e-01
            9.216387164251484e-02 6.790089383161969e-01 4.005235089111134e-01 -4.107122596984674e-02 9.533413447425645e-02 -5.593528015966907e-02 9.824889376170340e-02 -5.487903043688896e-02
            4.005466633848694e-01 -4.103674396326957e-02 9.220613210011765e-02 6.790535183096218e-01 9.821151150363960e-02 -5.484245616183015e-02 9.539308382079074e-02 -5.600438127742959e-02
116403669.7247706503 7.939852731367110e-02 -6.345800791265228e-02 7.808704991721978e-02 -5.376641121189961e-02 1.981302563582183e-01 6.569340269998066e-01 3.922319971344638e-01 -1.014791284951686e-01
            7.805716528746300e-02 -5.380563403658623e-02 7.939704721590327e-02 -6.345118959441029e-02 3.922165005275626e-01 -1.014905803947399e-01 1.981337277362626e-01 6.568918833656616e-01
            1.981218115208152e-01 6.569545554747339e-01 3.923131856941765e-01 -1.014495939675940e-01 7.807872436111803e-02 -5.790205693842820e-02 8.022140648212793e-02 -5.684071898626496e-02
            3.922097123916181e-01 -1.014815186308736e-01 1.981196922162445e-01 6.569101444292935e-01 8.020072494186392e-02 -5.684919483580271e-02 7.805145029350065e-02 -5.791779699275420e-02
116903252.7105921656 6.177230707753741e-02 -5.925036961292601e-02 6.115904338279284e-02 -4.982090036506233e-02 2.997534027501222e-01 6.177879722853041e-01 3.752217824241801e-01 -1.609787368357882e-01
            6.109419131303865e-02 -4.978072139786948e-02 6.177595816692395e-02 -5.924705037767113e-02 3.752993764504424e-01 -1.609547517235302e-01 2.997620281422194e-01 6.177972993044029e-01
            2.997822145728053e-01 6.177702987595290e-01 3.752159310680543e-01 -1.610090227778238e-01 6.080945271404480e-02 -5.421126205354924e-02 6.232329268771933e-02 -5.303605207050750e-02
            3.752029909967559e-01 -1.610287621099966e-01 2.998051807075568e-01 6.177441909049920e-01 6.238372036026750e-02 -5.302859335633518e-02 6.082336243310695e-02 -5.429577157541005e-02
117402835.6964136809 4.615486561089634e-02 -4.961150708808040e-02 4.612442864097581e-02 -4.051401057443722e-02 3.940998608660248e-01 5.621756071961351e-01 3.493156767685823e-01 -2.185101345015108e-01
            4.595655284017345e-02 -4.060784811920657e-02 4.617596032322917e-02 -4.952930835668017e-02 3.492160210509648e-01 -2.184926103404917e-01 3.940869831254061e-01 5.622413496389862e-01
            3.941402501241179e-01 5.622661667113145e-01 3.492994259999625e-01 -2.184839297334741e-01 4.548498517113880e-02 -4.521148611078982e-02 4.647647041455785e-02 -4.366048115131307e-02
            3.492118325864090e-01 -2.185447497068202e-01 3.941188998513893e-01 5.622132560213011e-01 4.643305432518535e-02 -4.373037221165285e-02 4.542420971087117e-02 -4.520883109865778e-02
117902418.6822351962 3.441363325153812e-02 -3.532404243383781e-02 3.466884462997166e-02 -2.683679250618699e-02 4.780644665941734e-01 4.915585747594008e-01 3.140479290255295e-01 -2.726122695198957e-01
            3.470257178890460e-02 -2.682984793982878e-02 3.440220410003519e-02 -3.534025531514134e-02 3.140782993850298e-01 -2.726463954315645e-01 4.780283549012939e-01 4.915698226346360e-01
            4.780714194698605e-01 4.915272962868801e-01 3.140868882619061e-01 -2.725849806366010e-01 3.373984413254776e-02 -3.156566604269900e-02 3.426514922994792e-02 -2.975661245882185e-02
            3.140753045243226e-01 -2.726148971020387e-01 4.780339421733151e-01 4.915567862598844e-01 3.429933959173387e-02 -2.977377356753739e-02 3.382579810576960e-02 -3.158125034542319e-02
118402001.6680567116 2.769007450061923e-02 -1.808801320631392e-02 2.830462995422841e-02 -1.004052796940856e-02 5.488753409329833e-01 4.079948021302662e-01 2.697837107936358e-01 -3.215143844837822e-01
            2.835447506745184e-02 -1.006514365465043e-02 2.768379518710064e-02 -1.802621107421841e-02 2.698501712143422e-01 -3.214473945567085e-01 5.488589024160510e-01 4.079672418840051e-01
            5.488873791989872e-01 4.080439283790678e-01 2.698554941156460e-01 -3.215931038382712e-01 2.704245209300705e-02 -1.484481884814796e-02 2.722529616720627e-02 -1.256791387912659e-02
            2.698529117051486e-01 -3.215313372687829e-01 5.489214057069808e-01 4.079629536319359e-01 2.725585442358211e-02 -1.253775637931052e-02 2.709110612586839e-02 -1.478189825277409e-02
118901584.6538782269 2.698871192395458e-02 5.699567111424256e-04 2.768842392384229e-02 7.912235403265978e-03 6.045531051538483e-01 3.144159951950390e-01 2.171189865213429e-01 -3.633242599749907e-01
            2.767998018972749e-02 7.955653641073665e-03 2.702352619846391e-02 6.538300483505996e-04 2.170767721324388e-01 -3.633934539686410e-01 6.045622619654472e-01 3.144086862467245e-01
            6.045529432426342e-01 3.143799085805056e-01 2.171726845822868e-01 -3.633605669663980e-01 2.608748831248082e-02 3.367333435296710e-03 2.605200650455632e-02 6.152112078955442e-03
            2.170564772970355e-01 -3.634373641287034e-01 6.046059687102086e-01 3.143374812671443e-01 2.605988799133256e-02 6.072736738304102e-03 2.615858459146305e-02 3.372933524560507e-03
119401167.6396997571 3.226384964911737e-02 1.844636224425745e-02 3.288287661510688e-02 2.514760293156605e-02 6.437161937762261e-01 2.137306125668466e-01 1.571785133330526e-01 -3.962925028969073e-01
            3.286838299527772e-02 2.516726454427389e-02 3.217218998695826e-02 1.826033837214348e-02 1.571522606252230e-01 -3.962499198381401e-01 6.437278706011728e-01 2.137213328496083e-01
            6.437401897563623e-01 2.137146812319287e-01 1.571026212361536e-01 -3.962421098146791e-01 3.115632013919235e-02 2.082204120932934e-02 3.109706759098036e-02 2.399054040976868e-02
            1.571666337420163e-01 -3.962360475190246e-01 6.437107822104724e-01 2.136894464606569e-01 3.114243335795801e-02 2.398453561766056e-02 3.120877157634492e-02 2.091850468378821e-02
119900750.6255212724 4.281039141954767e-02 3.342567946838434e-02 4.337672304122794e-02 3.970085255428060e-02 6.656917659930364e-01 1.091175820521822e-01 9.170704666057453e-02 -4.186085205214363e-01
            4.341081296795776e-02 3.966859768268059e-02 4.282454913655594e-02 3.338116489818993e-02 9.173729499424835e-02 -4.186394770054944e-01 6.657506073175944e-01 1.092576590973398e-01
            6.657589714910898e-01 1.091928979251989e-01 9.174983586521289e-02 -4.187073935589539e-01 4.154093833824452e-02 3.571001428543068e-02 4.144698019378733e-02 3.920466594166654e-02
            9.171510469818868e-02 -4.186298557366095e-01 6.656399724325156e-01 1.091473872544251e-01 4.152532926748768e-02 3.919631083043719e-02 4.148941874727280e-02 3.568381453637930e-02
120400333.6113427877 5.750791208534149e-02 4.411829436693986e-02 5.789101904099104e-02 5.003758812995933e-02 6.708357759611021e-01 3.852556797283704e-03 2.302736230688491e-02 -4.294755039153507e-01
            5.785417163769363e-02 5.001378597809027e-02 5.759886916621132e-02 4.407979598523571e-02 2.297286647352650e-02 -4.294565426019336e-01 6.708118147475076e-01 3.875871070289318e-03
            6.708182913216142e-01 3.884453169267083e-03 2.308008494907423e-02 -4.294713710985986e-01 5.596297543749409e-02 4.634799449639193e-02 5.614629743892385e-02 5.021712007014377e-02
            2.303748643628551e-02 -4.294767025891700e-01 6.708587932492979e-01 3.928419415947889e-03 5.612559823708900e-02 5.017776899688396e-02 5.604978141148118e-02 4.637901431875504e-02
120899916.5971643031 7.468666494773882e-02 4.971140472239635e-02 7.469106169453162e-02 5.517483541535970e-02 6.596453468785277e-01 -9.951662477260698e-02 -4.659168822274829e-02 -4.282015286021284e-01
            7.460402780804937e-02 5.524219134309771e-02 7.472399461788923e-02 4.969285427468388e-02 -4.665048304069985e-02 -4.282344186899080e-01 6.596243383425546e-01 -9.953272497211987e-02
            6.596645139535553e-01 -9.952882452532048e-02 -4.663610589483253e-02 -4.282344678449335e-01 7.292205897509275e-02 5.188250264544702e-02 7.329847454296150e-02 5.587136929665189e-02
            -4.661637759213485e-02 -4.282008387857652e-01 6.596447547206384e-01 -9.958970805828016e-02 7.323857465513214e-02 5.591165141789253e-02 7.289646906790563e-02 5.183112551069509e-02
121399499.5829858184 9.249741230308091e-02 4.947313615238697e-02 9.193335285241948e-02 5.491213814348234e-02 6.331621889508355e-01 -1.989256892386760e-01 -1.146623982248785e-01 -4.152553100544955e-01
            9.193783215252387e-02 5.486697904574449e-02 9.238101550515877e-02 4.954689531796001e-02 -1.147261001638731e-01 -4.151452163621335e-01 6.332498359756108e-01 -1.988559572651173e-01
            6.331529724522744e-01 -1.988555945579994e-01 -1.146690151049484e-01 -4.152054258711730e-01 9.049189079325387e-02 5.167423502395831e-02 9.114790687250419e-02 5.592675164153591e-02
            -1.147391955879861e-01 -4.152271919940108e-01 6.331290146753050e-01 -1.988765581119498e-01 9.112886336076309e-02 5.593574780242998e-02 9.046221515648226e-02 5.175511471622462e-02
121899082.5688073486 1.090087402254811e-01 4.385652600497016e-02 1.082429275514077e-01 4.924652368682140e-02 5.927299729544467e-01 -2.920860355739399e-01 -1.790119988325403e-01 -3.911495328139143e-01
            1.082946212830034e-01 4.922876914424623e-02 1.089718501499677e-01 4.389907965826625e-02 -1.791025437271676e-01 -3.911577243132647e-01 5.927808868628878e-01 -2.920853463488758e-01
            5.927115193352150e-01 -2.921034545599814e-01 -1.790880919706998e-01 -3.911013050569044e-01 1.070700572095645e-01 4.620678651156678e-02 1.078847149440103e-01 5.048797764202696e-02
            -1.790356343058325e-01 -3.911746164785287e-01 5.927016771641409e-01 -2.921154457094573e-01 1.079610352098485e-01 5.042213582505509e-02 1.070216834372880e-01 4.616184337146339e-02
122398665.5546288639 1.229708032463156e-01 3.360928292470568e-02 1.218590355364162e-01 3.895230580375184e-02 5.394966632982171e-01 -3.777646070793569e-01 -2.380118146285463e-01 -3.572257274711156e-01
            1.218016748650028e-01 3.904131375836617e-02 1.228818622054183e-01 3.359591043431134e-02 -2.380486513927116e-01 -3.572480724690653e-01 5.394126475864071e-01 -3.778274535910061e-01
            5.394387605230458e-01 -3.777867468144384e-01 -2.379303101058164e-01 -3.572664850425202e-01 1.209023408909493e-01 3.604277671961108e-02 1.220999545328995e-01 4.020473724951906e-02
            -2.379729058047426e-01 -3.573041269596989e-01 5.394674388198446e-01 -3.776942311594132e-01 1.220137728067132e-01 4.024820501233967e-02 1.208688466846629e-01 3.600652644319499e-02
122898248.5404503793 1.330481022510127e-01 1.977567195555144e-02 1.315649273938448e-01 2.521355356213833e-02 4.746119773934455e-01 -4.544554175043823e-01 -2.900941429610419e-01 -3.150126055301078e-01
            1.315997734155545e-01 2.527389489219621e-02 1.329787254790747e-01 1.965771773139373e-02 -2.900932620607231e-01 -3.149966615595335e-01 4.745617634104214e-01 -4.545129522512539e-01
            4.745948058811194e-01 -4.544187576310237e-01 -2.901275667882113e-01 -3.150142335985920e-01 1.309490985430672e-01 2.220850669315632e-02 1.323001875472834e-01 2.630897445328938e-02
            -2.901087917515424e-01 -3.149739239387860e-01 4.745748842972549e-01 -4.544120451574939e-01 1.322073745861537e-01 2.620331751299807e-02 1.309791141751850e-01 2.215480395383342e-02
123397831.5262718946 1.383879233060070e-01 3.604403823578051e-03 1.367268043080360e-01 9.289312931137193e-03 3.993579219982624e-01 -5.208277690216873e-01 -3.344785593029244e-01 -2.658984706657811e-01
            1.367272988441019e-01 9.402608057001922e-03 1.382731895776747e-01 3.641014183891979e-03 -3.345280376233463e-01 -2.658829534872401e-01 3.993657461684254e-01 -5.208077411250002e-01
            3.992791480537388e-01 -5.208742927024390e-01 -3.344111760040459e-01 -2.658951835389493e-01 1.364443912603124e-01 6.045381839774538e-03 1.377292628895602e-01 9.981829416258799e-03
            -3.345500664969263e-01 -2.658642655913357e-01 3.992529001388067e-01 -5.208531861985322e-01 1.377893166636518e-01 9.944015223591793e-03 1.364067296944300e-01 6.134906656166305e-03
123897414.5120934099 1.386616404090180e-01 -1.336222645459435e-02 1.368786669257360e-01 -7.355536126620145e-03 3.151347672732568e-01 -5.756469647472575e-01 -3.705500334541008e-01 -2.114615906059794e-01
            1.368222446491658e-01 -7.368386355635026e-03 1.386005885025655e-01 -1.325310967528205e-02 -3.706185759758275e-01 -2.114396134886618e-01 3.150601097033932e-01 -5.756043178157091e-01
            3.150521046862754e-01 -5.756629512181941e-01 -3.705942994580830e-01 -2.114155336122085e-01 1.368175151006774e-01 -1.078545518229579e-02 1.381139295537046e-01 -7.084851478132099e-03
            -3.706326559291553e-01 -2.113885940821306e-01 3.150473959623103e-01 -5.756590127059217e-01 1.381168773992395e-01 -7.169408534372620e-03 1.367402711193918e-01 -1.084595237598124e-02
124396997.4979149252 1.337704391547990e-01 -2.947577270973959e-02 1.319690480553146e-01 -2.335276466304984e-02 2.232232990772357e-01 -6.175063987859873e-01 -3.981249999233705e-01 -1.527441057567180e-01
            1.319559526083051e-01 -2.334796863339254e-02 1.338165299908481e-01 -2.959292746836260e-02 -3.981054592557287e-01 -1.527271744319337e-01 2.231794273981769e-01 -6.175651603576771e-01
            2.231457276357067e-01 -6.176106620829920e-01 -3.981436774675383e-01 -1.527392610383882e-01 1.320227054096278e-01 -2.715683169205733e-02 1.333267910635072e-01 -2.367900083497216e-02
            -3.982031135713186e-01 -1.527295028931074e-01 2.232629026157617e-01 -6.175635752756188e-01 1.333056743169746e-01 -2.372946858217037e-02 1.320471606874499e-01 -2.709045614671728e-02
124896580.4837364554 1.242335987640546e-01 -4.353793463537572e-02 1.225045003361781e-01 -3.717704390200299e-02 1.252525303834570e-01 -6.454299718533989e-01 -4.171072470997190e-01 -9.113508460349304e-02
            1.224001321183938e-01 -3.712562518004439e-02 1.242968661699867e-01 -4.360119138045867e-02 -4.171105363724653e-01 -9.113230440393699e-02 1.252820249324985e-01 -6.454085208936025e-01
            1.253889313333053e-01 -6.454275039050954e-01 -4.170746587964638e-01 -9.118986014606872e-02 1.225715807134844e-01 -4.134412100547600e-02 1.237381351821215e-01 -3.793575876903992e-02
            -4.170354216336796e-01 -9.119915150695228e-02 1.253568218596241e-01 -6.454791072304390e-01 1.237216310612711e-01 -3.797040566676597e-02 1.225009833626260e-01 -4.127935723549827e-02
125396163.4695579708 1.109010097679196e-01 -5.412436628840838e-02 1.092329669154553e-01 -4.757879211492095e-02 2.362154497068558e-02 -6.582013146692575e-01 -4.272524165233840e-01 -2.752691185980611e-02
            1.091463846251149e-01 -4.757325777854912e-02 1.108273666724368e-01 -5.415606611121405e-02 -4.271010565312540e-01 -2.753369877283876e-02 2.357071189462872e-02 -6.581219946129205e-01
            2.361882757433074e-02 -6.581962650612692e-01 -4.271508171730360e-01 -2.754120591680072e-02 1.091717554546826e-01 -5.206712494948124e-02 1.100212375480093e-01 -4.882187248039271e-02
            -4.271913905965528e-01 -2.746613778075677e-02 2.360407307826948e-02 -6.581375382901010e-01 1.100390899064474e-01 -4.882068141285592e-02 1.091265428967628e-01 -5.211418530028546e-02
125895746.4553794861 9.474124979765214e-02 -6.003730806329274e-02 9.323921708361044e-02 -5.345295759523704e-02 -7.978089571073957e-02 -6.546738142658849e-01 -4.283037237060244e-01 3.722513452329129e-02
            9.322328175885179e-02 -5.343045381517982e-02 9.465902400120316e-02 -6.015341471752896e-02 -4.283685088047764e-01 3.722257233058080e-02 -7.989283797234002e-02 -6.547269058702749e-01
            -7.987239281714707e-02 -6.547208394055848e-01 -4.283905716891969e-01 3.718153034704247e-02 9.306870448983168e-02 -5.826010640094932e-02 9.367180857968138e-02 -5.504666164596021e-02
            -4.283492327274775e-01 3.719813464786168e-02 -7.988950342265522e-02 -6.547082379763780e-01 9.362939181574720e-02 -5.503180467059806e-02 9.305214157999654e-02 -5.826284796227397e-02
126395329.4412010014 7.742822979201787e-02 -6.077165696175435e-02 7.594964855614414e-02 -5.411546808855055e-02 -1.822053884810620e-01 -6.346532693325529e-01 -4.203659194012281e-01 1.020636729132452e-01
            7.597691490778997e-02 -5.405354723833009e-02 7.742400685815347e-02 -6.086696086151466e-02 -4.203952375522580e-01 1.020746708778443e-01 -1.822281982125961e-01 -6.346346433388155e-01
            -1.821776482587304e-01 -6.346891175335477e-01 -4.203500924026708e-01 1.020889040207720e-01 7.558883643341437e-02 -5.919584825411289e-02 7.583398996199167e-02 -5.593194378431480e-02
            -4.203080246751598e-01 1.020649571294660e-01 -1.822181414458161e-01 -6.346038942758940e-01 7.579260359299690e-02 -5.598723726768494e-02 7.561927485047677e-02 -5.925076192746658e-02
126894912.4270225167 6.054158356553491e-02 -5.603347990957817e-02 5.922421773714220e-02 -4.923251671160890e-02 -2.806752272540994e-01 -5.979364171082783e-01 -4.029204462596327e-01 1.660717925639710e-01
            5.931720226363854e-02 -4.920446059322771e-02 6.051765288634143e-02 -5.601753898994655e-02 -4.029454975940813e-01 1.660754917159942e-01 -2.807102612194903e-01 -5.980191903784621e-01
            -2.806781287024476e-01 -5.980487726909903e-01 -4.028706875097757e-01 1.661003430360882e-01 5.849729636678038e-02 -5.458604468081794e-02 5.848168972080172e-02 -5.107365001522049e-02
            -4.029567706085390e-01 1.661792038114285e-01 -2.806805377525909e-01 -5.979815379582151e-01 5.846972101688653e-02 -5.114266494089502e-02 5.862696658634968e-02 -5.459295386875591e-02
127394495.4128440320 4.610001979840721e-02 -4.599662214516621e-02 4.476499374469415e-02 -3.940871081448336e-02 -3.720539481315219e-01 -5.454379722762548e-01 -3.756168172156602e-01 2.279795078929202e-01
            4.478030582875982e-02 -3.937845978834000e-02 4.600767024870810e-02 -4.606905021201815e-02 -3.756081178515508e-01 2.280233822856567e-01 -3.720703054946970e-01 -5.453569401822425e-01
            -3.720715060441497e-01 -5.454506488820808e-01 -3.756348297434851e-01 2.279947175994677e-01 4.375119320672013e-02 -4.475827962896184e-02 4.340160155893470e-02 -4.097328063851001e-02
            -3.756182081943701e-01 2.280360227298060e-01 -3.720500380261502e-01 -5.453307784867284e-01 4.344042988436581e-02 -4.100170748533032e-02 4.369431954242860e-02 -4.475108313143539e-02
127894078.3986655623 3.536826318525652e-02 -3.182128510974076e-02 3.415804670024500e-02 -2.528308006024793e-02 -4.534767339590812e-01 -4.782974374840049e-01 -3.384509531637174e-01 2.861588441761060e-01
            3.417521794705784e-02 -2.522379351854910e-02 3.539669133181993e-02 -3.186415952830801e-02 -3.383624123878856e-01 2.861383731793258e-01 -4.534548014265708e-01 -4.782493277035895e-01
            -4.535591368594983e-01 -4.782791581151410e-01 -3.384046708665216e-01 2.861290469854565e-01 3.271363004505974e-02 -3.062194917077059e-02 3.219114706537744e-02 -2.648785763793439e-02
            -3.384029938503957e-01 2.861915131748438e-01 -4.534892732228300e-01 -4.782543770995066e-01 3.227204598828640e-02 -2.639529106947753e-02 3.268354427364813e-02 -3.059761909776220e-02
128393661.3844870776 2.994272883066539e-02 -1.492171428097750e-02 2.863942802298134e-02 -8.359759058781594e-03 -5.223349267636427e-01 -3.987241203205251e-01 -2.915554892022515e-01 3.386468906104602e-01
            2.860483384670190e-02 -8.350367268789641e-03 2.991532380390914e-02 -1.486706101527661e-02 -2.915693602542253e-01 3.386418594013209e-01 -5.223753683758751e-01 -3.986283992643254e-01
            -5.224438396299343e-01 -3.986764350507588e-01 -2.915769085070298e-01 3.385994296985957e-01 2.681206290503325e-02 -1.365920303877443e-02 2.631021932653043e-02 -9.011753547355917e-03
            -2.916304157914197e-01 3.386741921991003e-01 -5.223339471650256e-01 -3.986703039928681e-01 2.626810326624802e-02 -9.025179131753396e-03 2.692588454209423e-02 -1.362589107343825e-02
128893244.3703085929 3.017287986998451e-02 2.890934598514926e-03 2.888617433572386e-02 9.350381483004475e-03 -5.767468205050389e-01 -3.093267659098675e-01 -2.358060222481202e-01 3.835844176923804e-01
            2.889094181518471e-02 9.314875832367796e-03 3.023693385585568e-02 2.837614733849699e-03 -2.357265903248692e-01 3.835031064138641e-01 -5.767895529138213e-01 -3.093175206056351e-01
            -5.767732077351153e-01 -3.093611326498747e-01 -2.357448502582811e-01 3.834570764844413e-01 2.670378601544043e-02 4.225138937193507e-03 2.626295863976872e-02 9.410481984541540e-03
            -2.357018457764100e-01 3.834700987474107e-01 -5.767304713958140e-01 -3.093078925640531e-01 2.621191828365554e-02 9.339584800981501e-03 2.673880804553533e-02 4.346716876812005e-03
129392827.3561301082 3.626264975091480e-02 1.956070642636156e-02 3.473465044691355e-02 2.596332218437009e-02 -6.152884378213278e-01 -2.131961494997087e-01 -1.723148935990550e-01 4.187804647416696e-01
            3.472289399749892e-02 2.590350185439061e-02 3.625357235696175e-02 1.958512139039270e-02 -1.723438434224134e-01 4.188168566456331e-01 -6.153035166231164e-01 -2.132440857184252e-01
            -6.152823764553689e-01 -2.132314010260042e-01 -1.723104716181658e-01 4.187833556843235e-01 3.251130070769989e-02 2.124186530003434e-02 3.200526115663209e-02 2.681997045585773e-02
            -1.723867074425796e-01 4.188691392775249e-01 -6.152818900961999e-01 -2.131183963532071e-01 3.207128132721634e-02 2.678413844505830e-02 3.242775494474031e-02 2.121732711004405e-02
129892410.3419516236 4.741380713249858e-02 3.322462474617136e-02 4.551354490341281e-02 3.971156180876702e-02 -6.375327801912692e-01 -1.132304045158463e-01 -1.032254855421554e-01 4.429717414203386e-01
            4.557411460616034e-02 3.971298355871285e-02 4.735982819787872e-02 3.328048600672077e-02 -1.032322854821384e-01 4.430381042313234e-01 -6.374859044968955e-01 -1.132745626537852e-01
            -6.375602569399594e-01 -1.132932950480759e-01 -1.032165612191118e-01 4.430573986094096e-01 4.312046432168758e-02 3.532942265652558e-02 4.310031255632269e-02 4.138000529685903e-02
            -1.032043899055251e-01 4.430151618664780e-01 -6.374936706654692e-01 -1.132422155557511e-01 4.306602684222016e-02 4.137430108934854e-02 4.319438061470864e-02 3.532095620302275e-02
130391993.3277731538 6.213246784831594e-02 4.264014419509079e-02 6.010272446918255e-02 4.911780844323958e-02 -6.435925238850457e-01 -1.244622273703392e-02 -3.063020399943045e-02 4.550816996407516e-01
            6.012921266431202e-02 4.909917938622239e-02 6.208574097306638e-02 4.265871384624168e-02 -3.051680066759786e-02 4.550426340289980e-01 -6.436343683872906e-01 -1.244889298914799e-02
            -6.436349798059933e-01 -1.248158500398791e-02 -3.058658785043479e-02 4.551071022191532e-01 5.769965382600767e-02 4.503301299332484e-02 5.808222855336869e-02 5.150564607746189e-02
            -3.058918918516727e-02 4.550046953757281e-01 -6.435882772667884e-01 -1.239979312088555e-02 5.806632999741795e-02 5.148593599817748e-02 5.772309838848793e-02 4.507833769831354e-02
130891576.3135946691 7.888277393901591e-02 4.666148701076629e-02 7.670824564543696e-02 5.341966876814046e-02 -6.341824851196800e-01 8.665298248288486e-02 4.290754867713661e-02 4.544933601886950e-01
            7.669109232537444e-02 5.341019515769649e-02 7.896083535348873e-02 4.664124132927515e-02 4.285681974065516e-02 4.545085123572077e-01 -6.341500321313137e-01 8.676440020690133e-02
            -6.341937305202638e-01 8.678688925330423e-02 4.283054697000580e-02 4.544948545059529e-01 7.439064929635450e-02 4.963894574630665e-02 7.523186233077934e-02 5.649065935011906e-02
            4.288661281642193e-02 4.544932104650932e-01 -6.342958014969755e-01 8.685958855746044e-02 7.531711647919959e-02 5.639276618746833e-02 7.435412887669268e-02 4.964081334348201e-02
131391159.2994161844 9.599436893271227e-02 4.536233921364000e-02 9.350816153792006e-02 5.235208901819318e-02 -6.102434844458106e-01 1.822118307708668e-01 1.148108480387992e-01 4.416637927419945e-01
            9.353186532172252e-02 5.238406005345398e-02 9.593047332361063e-02 4.526114784330058e-02 1.148849945712746e-01 4.415769172195343e-01 -6.101473531215960e-01 1.822370432265243e-01
            -6.101800657198052e-01 1.821809972200326e-01 1.148960957238617e-01 4.416284853637874e-01 9.139296959269402e-02 4.875580839083418e-02 9.290814287606390e-02 5.571764426699407e-02
            1.148528755709580e-01 4.416314398555167e-01 -6.102792465457297e-01 1.821961560433646e-01 9.294634035976904e-02 5.567312984842306e-02 9.140404283259286e-02 4.880024764415347e-02
131890742.2852376997 1.115462590125919e-01 3.873802772689791e-02 1.090095951786003e-01 4.617219494049996e-02 -5.727740193626202e-01 2.721947582070675e-01 1.831952682651530e-01 4.172285494544458e-01
            1.090337063415251e-01 4.618121054476271e-02 1.115625965195210e-01 3.873485620277680e-02 1.830919500411427e-01 4.172709133434254e-01 -5.727941897384032e-01 2.721566241080968e-01
            -5.728032760972274e-01 2.721827949888039e-01 1.831459638551758e-01 4.173058820023551e-01 1.071047356154266e-01 4.270080800189165e-02 1.092320731680946e-01 4.960334928018298e-02
            1.831403524089207e-01 4.173415957955536e-01 -5.727825842550585e-01 2.722261958103823e-01 1.091970402412872e-01 4.960208518522297e-02 1.070924803230623e-01 4.277238357149637e-02
132390325.2710592151 1.242808605641841e-01 2.778512981471178e-02 1.216707099667015e-01 3.567514268253599e-02 -5.229049194221267e-01 3.552047733070309e-01 2.458870727199049e-01 3.826333952872794e-01
            1.217132430927152e-01 3.568235740673185e-02 1.242519577066297e-01 2.775143411084140e-02 2.458276952993484e-01 3.825558037500090e-01 -5.229197084938636e-01 3.551868406085124e-01
            -5.230042380925135e-01 3.551330919112429e-01 2.458152613852814e-01 3.825930265550731e-01 1.200169419485470e-01 3.213703479616674e-02 1.227700347210727e-01 3.894686959533600e-02
            2.459399605340326e-01 3.825396850101336e-01 -5.229339616153951e-01 3.550945044581408e-01 1.228501336835699e-01 3.900252382027200e-02 1.200344167622264e-01 3.222421811404676e-02
132889908.2568807304 1.329295530565958e-01 1.348218013858620e-02 1.305057146822940e-01 2.186262296957016e-02 -4.618067973298667e-01 4.297319741799916e-01 3.016799553181816e-01 3.389650295636140e-01
            1.305675309608436e-01 2.188531043320883e-02 1.329865819693644e-01 1.353534018202406e-02 3.016886153764277e-01 3.389358906916153e-01 -4.617750000598828e-01 4.296493597883418e-01
            -4.618224936348226e-01 4.297245150030195e-01 3.017109301423386e-01 3.388903895819970e-01 1.290033409338407e-01 1.848658086856313e-02 1.324139642476883e-01 2.492237554877943e-02
            3.016426148422280e-01 3.389074640841193e-01 -4.618540208355312e-01 4.297124128456289e-01 1.324264130600876e-01 2.493021006099211e-02 1.290135470708934e-01 1.837893875958820e-02
133389491.2427022606 1.368533992207543e-01 -2.568139765454604e-03 1.346847446106078e-01 6.195720679344336e-03 -3.905178664839946e-01 4.945447094005449e-01 3.496049710255292e-01 2.879027782341858e-01
            1.346568051295377e-01 6.326165205643296e-03 1.368972776764186e-01 -2.586614323893008e-03 3.496779304063003e-01 2.879356246954460e-01 -3.906048873832449e-01 4.946223840349740e-01
            -3.905548343466562e-01 4.946263281063618e-01 3.496435950312226e-01 2.879101407267760e-01 1.332820193761343e-01 2.654370338289130e-03 1.373399232802996e-01 8.686503396255874e-03
            3.495487246246929e-01 2.878689342206959e-01 -3.905018052247564e-01 4.946249864261790e-01 1.374189784834852e-01 8.699641643853506e-03 1.333114236010426e-01 2.639058081940325e-03
133889074.2285237759 1.358917791112607e-01 -1.913049538301659e-02 1.339889704697866e-01 -9.915056596723324e-03 -3.103187287030336e-01 5.485510446809685e-01 3.890461389249075e-01 2.308452872303863e-01
            1.339460059939883e-01 -9.984678023625996e-03 1.358719379450774e-01 -1.920530633682205e-02 3.889919094482864e-01 2.309545266816512e-01 -3.102981690425701e-01 5.485153504065583e-01
            -3.102772752805608e-01 5.485231937810630e-01 3.890629999677319e-01 2.308407519411328e-01 1.327511314562044e-01 -1.366498368324862e-02 1.370654544756158e-01 -8.215800838869591e-03
            3.890050232598377e-01 2.309220698598831e-01 -3.103167523201796e-01 5.485265165916203e-01 1.370924015545021e-01 -8.251602611307836e-03 1.327784904735042e-01 -1.367906942837163e-02
134388657.2143452764 1.298967902573065e-01 -3.473458218275494e-02 1.284023899816516e-01 -2.511018566226527e-02 -2.224577964228423e-01 5.901378572341912e-01 4.195303524375226e-01 1.692263869125227e-01
            1.283797250409751e-01 -2.513829023954523e-02 1.299310836471632e-01 -3.472049512623728e-02 4.195302248563800e-01 1.692747828475169e-01 -2.224645714934113e-01 5.901600112880394e-01
            -2.225047444836854e-01 5.901251996316803e-01 4.195055775324830e-01 1.692828141398247e-01 1.272151888243039e-01 -2.904474121903125e-02 1.318614347791197e-01 -2.430007874881698e-02
            4.194635985888655e-01 1.693495059833058e-01 -2.224315651516826e-01 5.901782460104578e-01 1.318434421862350e-01 -2.428302060921672e-02 1.272102792512508e-01 -2.904516656696171e-02
134888240.2001668215 1.194123605324213e-01 -4.788439085683143e-02 1.184554173685766e-01 -3.804728329014227e-02 -1.286473501570594e-01 6.183460031433553e-01 4.408109757031354e-01 1.042270298186515e-01
            1.184076728241707e-01 -3.804917727348828e-02 1.194096461026034e-01 -4.786809296910516e-02 4.408868587121634e-01 1.041717221365827e-01 -1.286812646418927e-01 6.182453376846229e-01
            -1.286377314929077e-01 6.182645165254966e-01 4.408689479473576e-01 1.041699260156737e-01 1.172582615475912e-01 -4.209957874021340e-02 1.219919859382282e-01 -3.805268259273748e-02
            4.408801250386408e-01 1.041127190881775e-01 -1.286758033290332e-01 6.182376376823306e-01 1.219440939032376e-01 -3.798417930545474e-02 1.172175546831345e-01 -4.210375172482252e-02
135387823.1859883368 1.053388993648493e-01 -5.727970612451707e-02 1.049274682504207e-01 -4.736544982185235e-02 -3.084855146129795e-02 6.317019027582704e-01 4.528232499803774e-01 3.660213572859342e-02
            1.049651594526968e-01 -4.734390765648871e-02 1.054291397068808e-01 -5.728184510685208e-02 4.528886612827656e-01 3.662743099355457e-02 -3.084673961157302e-02 6.316468342867640e-01
            -3.083352418711089e-02 6.316565054015613e-01 4.528567369661171e-01 3.658698925915768e-02 1.037215039895698e-01 -5.158598255836400e-02 1.081952679399021e-01 -4.816954576131909e-02
            4.528902602829135e-01 3.658429664266043e-02 -3.082510203938952e-02 6.316571651671061e-01 1.082073501302637e-01 -4.830287314006680e-02 1.037118036189068e-01 -5.162583646279396e-02
135887406.1718098521 8.898924110772466e-02 -6.208235088149024e-02 8.914884303184280e-02 -5.210679166515337e-02 6.878261243673198e-02 6.294782420076550e-01 4.552502386685849e-01 -3.240549618302103e-02
            8.905956964069336e-02 -5.204807652029748e-02 8.897563266247688e-02 -6.200290513390095e-02 4.552237821995037e-01 -3.233957168171762e-02 6.874847486816510e-02 6.294366066319959e-01
            6.867895184962695e-02 6.294610464595715e-01 4.552910554092124e-01 -3.241771993558879e-02 8.772163786155573e-02 -5.651406531021690e-02 9.196861404294039e-02 -5.372850073079781e-02
            4.552822468088619e-01 -3.229869697702351e-02 6.882728576928585e-02 6.294546420183897e-01 9.198573810478357e-02 -5.376996374867691e-02 8.776222392709755e-02 -5.652522261368131e-02
136386989.1576313674 7.176615848546812e-02 -6.149394159158668e-02 7.234031627913839e-02 -5.165470249018748e-02 1.674398457961745e-01 6.111540624136834e-01 4.476133760511807e-01 -1.018045159699827e-01
            7.240256812218090e-02 -5.162397593864182e-02 7.177778519443716e-02 -6.148802545831795e-02 4.476704429042008e-01 -1.017613483447624e-01 1.674034306911536e-01 6.112589135425242e-01
            1.674044416100303e-01 6.112163513007051e-01 4.477391499290861e-01 -1.016837751855805e-01 7.082016479278917e-02 -5.618425565689098e-02 7.463155874312109e-02 -5.401083410724862e-02
            4.476807715711406e-01 -1.017625978530450e-01 1.673624556077570e-01 6.111907317193276e-01 7.463148668004142e-02 -5.397647950641613e-02 7.068429468478318e-02 -5.620786323398718e-02
136886572.1434528828 5.547673215806024e-02 -5.550462101480382e-02 5.647204454425097e-02 -4.591386506713927e-02 2.622277201118872e-01 5.768215817552212e-01 4.298618926383107e-01 -1.702178063757222e-01
            5.643674228061103e-02 -4.599961464479359e-02 5.541979249325583e-02 -5.552478055321276e-02 4.297684087956494e-01 -1.701956847200164e-01 2.622640229949124e-01 5.769059200596699e-01
            2.623001438574391e-01 5.768380071976871e-01 4.298360715667660e-01 -1.701885592695661e-01 5.466574929912387e-02 -5.056414189648684e-02 5.789179277422354e-02 -4.877390434241376e-02
            4.298617308815003e-01 -1.702190654379544e-01 2.622348067970597e-01 5.767989995903124e-01 5.789807818885570e-02 -4.880782319908825e-02 5.454869037896455e-02 -5.053786110238578e-02
137386155.1292743981 4.169654754322395e-02 -4.467054284384811e-02 4.306838755687408e-02 -3.549117527552101e-02 3.504536242448672e-01 5.271438728235862e-01 4.014415825619515e-01 -2.364038315897466e-01
            4.314217276202924e-02 -3.546621883686614e-02 4.166174448078842e-02 -4.474726091944096e-02 4.014092336423184e-01 -2.363854088333852e-01 3.503833088187709e-01 5.271195111769290e-01
            3.505338526599341e-01 5.272068667811356e-01 4.014704551590819e-01 -2.363454919331516e-01 4.102765883972564e-02 -4.002660089842888e-02 4.366848899188369e-02 -3.840109127967074e-02
            4.014530021015319e-01 -2.364088160875150e-01 3.504360717789523e-01 5.272337093365378e-01 4.364905664614810e-02 -3.840561618277743e-02 4.105607263544921e-02 -4.007682284117776e-02
137885738.1150959134 3.214595186238877e-02 -2.997684910890694e-02 3.371666073938193e-02 -2.108937889380609e-02 4.290693422334852e-01 4.634576253468432e-01 3.624654856816742e-01 -2.984724932009322e-01
            3.373100195803328e-02 -2.110271230207673e-02 3.213584602871122e-02 -2.990557770368593e-02 3.623153829354798e-01 -2.984082823493432e-01 4.291119496245634e-01 4.635571915677422e-01
            4.290946183300134e-01 4.634340825452632e-01 3.623368831385849e-01 -2.983783358727966e-01 3.143033429930123e-02 -2.566762895215889e-02 3.329917297739891e-02 -2.405109476876072e-02
            3.623969254353218e-01 -2.984444924258285e-01 4.291031129582060e-01 4.635288449512336e-01 3.327147747753866e-02 -2.403817235237075e-02 3.139056583378969e-02 -2.559142296007914e-02
138385321.1009174287 2.780898870052685e-02 -1.298925912440692e-02 2.940528224404266e-02 -4.422893980849194e-03 4.956795708182825e-01 3.879029062068868e-01 3.130002313979002e-01 -3.543758670083723e-01
            2.947868914743744e-02 -4.515149106666692e-03 2.773556018719725e-02 -1.292007629263392e-02 3.130481712597899e-01 -3.543585730140119e-01 4.957661996866968e-01 3.878900735012005e-01
            4.956760205644943e-01 3.878274986336775e-01 3.130950460768850e-01 -3.543446258094753e-01 2.687933122430156e-02 -8.754751695013163e-03 2.811971664140585e-02 -7.103557918008692e-03
            3.130972683465436e-01 -3.543849059179977e-01 4.957389345362754e-01 3.878881979512636e-01 2.807437505027224e-02 -7.085854558493427e-03 2.687580926951862e-02 -8.745386296794009e-03
138884904.0867389441 2.909362698166746e-02 4.486840889151870e-03 3.078397895057229e-02 1.261009352888277e-02 5.484915718521244e-01 3.029402872022522e-01 2.542831547308717e-01 -4.022243284117518e-01
            3.081153211173106e-02 1.258535752765675e-02 2.905695797037031e-02 4.538953772824665e-03 2.543078114374211e-01 -4.022330184106498e-01 5.485009673887564e-01 3.029142243041162e-01
            5.485231160339382e-01 3.029063140237755e-01 2.542023400788386e-01 -4.021800241794359e-01 2.799148763288896e-02 8.469152712723724e-03 2.866457623397247e-02 1.063682545924255e-02
            2.543623437840764e-01 -4.021401633937655e-01 5.484603145062692e-01 3.028498446196767e-01 2.863608632240647e-02 1.064172631333354e-02 2.802182012020157e-02 8.560846805950470e-03
139384487.0725604594 3.604180730245227e-02 2.052998109810246e-02 3.748561351199402e-02 2.825306318610127e-02 5.862996063641379e-01 2.113552967663759e-01 1.875626080536082e-01 -4.398485977402380e-01
            3.757716696700045e-02 2.829760122552066e-02 3.601570713660297e-02 2.057401072719478e-02 1.876327358025344e-01 -4.397500546034807e-01 5.864036475773052e-01 2.113870663327486e-01
            5.862738386526722e-01 2.114384983161189e-01 1.875783223251684e-01 -4.397773960693747e-01 3.463071211000217e-02 2.446449255767141e-02 3.491744847640959e-02 2.720942401205568e-02
            1.876201413724979e-01 -4.398995788367094e-01 5.862650795909224e-01 2.114417981092951e-01 3.484957542525283e-02 2.719184258522912e-02 3.466815577327972e-02 2.445176403441786e-02
139884070.0583819747 4.765330060752444e-02 3.327496870846036e-02 4.885819310203539e-02 4.086722614960252e-02 6.086423919380183e-01 1.162483812874113e-01 1.150606771212158e-01 -4.659206019329719e-01
            4.879751108020319e-02 4.088361069199762e-02 4.756322602680733e-02 3.322667294654118e-02 1.150576280456376e-01 -4.658313569617434e-01 6.086483482520237e-01 1.162010062821071e-01
            6.086342359280478e-01 1.162850732661354e-01 1.150529460652715e-01 -4.658923608120903e-01 4.600516883018128e-02 3.731444653225634e-02 4.581714936641758e-02 4.067925347569596e-02
            1.150280419320957e-01 -4.659245826281150e-01 6.085930148666564e-01 1.162345040525614e-01 4.578855267950577e-02 4.069399747544423e-02 4.600122238378013e-02 3.724821677856321e-02
140383653.0442035198 6.249623167924313e-02 4.144543872213038e-02 6.341363898785093e-02 4.905003230066321e-02 6.156798936077192e-01 2.003341780708557e-02 3.888818390532429e-02 -4.792323541262027e-01
            6.345736586333427e-02 4.899411526628701e-02 6.251734301425314e-02 4.157304112682193e-02 3.896424625869671e-02 -4.792609911025193e-01 6.157221339315689e-01 2.006244199547751e-02
            6.156358289670321e-01 2.007697333792626e-02 3.889961260427368e-02 -4.791736452014903e-01 6.062852121051113e-02 4.574350793215421e-02 6.045599331849888e-02 4.981209097354020e-02
            3.896950933878641e-02 -4.792878497199669e-01 6.155764244627068e-01 2.013373885161086e-02 6.046893846796091e-02 4.995968913552776e-02 6.060363781882720e-02 4.575217151028449e-02
140883236.0300250351 7.904934446483806e-02 4.454547277591329e-02 7.953040039435355e-02 5.212134456049732e-02 6.079265330241100e-01 -7.476447993405087e-02 -3.817214059015384e-02 -4.795092273399559e-01
            7.951208475772825e-02 5.206243406139537e-02 7.906194076502582e-02 4.453384739661307e-02 -3.820812890669380e-02 -4.795468060513930e-01 6.079726201779626e-01 -7.482703359367661e-02
            6.079675050608913e-01 -7.479065471655913e-02 -3.820874003280788e-02 -4.796448986440597e-01 7.700057425508752e-02 4.909507001578216e-02 7.696765321121937e-02 5.397956175291885e-02
            -3.816162585457310e-02 -4.795297791199259e-01 6.078933911211261e-01 -7.479947665474025e-02 7.687940165726680e-02 5.399143456933334e-02 7.693937183746852e-02 4.906083100882189e-02
141382819.0158465505 9.547065346902120e-02 4.213138266116742e-02 9.568567931715714e-02 5.002319683988464e-02 5.864684577720108e-01 -1.663375650647469e-01 -1.138003806172931e-01 -4.670290443913402e-01
            9.570703379693279e-02 4.989946578367762e-02 9.542081286209035e-02 4.212099949777483e-02 -1.138633102053623e-01 -4.670063337082998e-01 5.863798607230976e-01 -1.664042285070573e-01
            5.863913060944735e-01 -1.664161003038425e-01 -1.138088882051007e-01 -4.670682463755657e-01 9.324117067782459e-02 4.709681159001052e-02 9.351767730320705e-02 5.276088092704077e-02
            -1.138259750300954e-01 -4.670461328612701e-01 5.863648395532239e-01 -1.663732844536960e-01 9.348945703886676e-02 5.283467478439172e-02 9.319867571575803e-02 4.703390821865622e-02
141882402.0016680658 1.101043410388131e-01 3.477740011092714e-02 1.101422176424400e-01 4.303599038128612e-02 5.518529963820571e-01 -2.529940842006912e-01 -1.858002380946071e-01 -4.425466044043096e-01
            1.101350871545305e-01 4.307352579697358e-02 1.100793179751119e-01 3.473373876260066e-02 -1.856698772993121e-01 -4.426697781635289e-01 5.518667221662164e-01 -2.530506609619260e-01
            5.518409562275706e-01 -2.529910250739278e-01 -1.858668101695643e-01 -4.425653469104852e-01 1.078703803765059e-01 4.013031700033842e-02 1.087913846316666e-01 4.656663333658333e-02
            -1.857970461072567e-01 -4.426283415568504e-01 5.519109636458597e-01 -2.529632869050105e-01 1.087270452893933e-01 4.658832165004637e-02 1.078580031184169e-01 4.014467447422829e-02
142381984.9874895811 1.215986675161529e-01 2.331235357125429e-02 1.215149457002808e-01 3.209863442891409e-02 5.053033383676270e-01 -3.331165159756906e-01 -2.522912578106547e-01 -4.073575252498919e-01
            1.214691989407398e-01 3.209172703033610e-02 1.216362226766298e-01 2.336342773114618e-02 -2.522601882989707e-01 -4.073817689050310e-01 5.053581693554267e-01 -3.331359751271024e-01
            5.053394569081171e-01 -3.331579373966039e-01 -2.522155267772380e-01 -4.073246218830683e-01 1.194436949175211e-01 2.919642438895370e-02 1.212234377019003e-01 3.619808771262766e-02
            -2.522102278798771e-01 -4.073480767175863e-01 5.053344941340056e-01 -3.331401575818092e-01 1.211484725503407e-01 3.612084791985783e-02 1.195023623868546e-01 2.925887731205049e-02
142881567.9733110964 1.290190397245335e-01 8.904791365496724e-03 1.289553402393084e-01 1.832165102523872e-02 4.478361000260792e-01 -4.055586487338130e-01 -3.116796203235670e-01 -3.626882827548078e-01
            1.290234090015077e-01 1.841875931234301e-02 1.290049268709948e-01 8.873867968010157e-03 -3.117023388792632e-01 -3.627391851808476e-01 4.478736708220966e-01 -4.055291914085691e-01
            4.478377998989061e-01 -4.055487988840214e-01 -3.118479741774711e-01 -3.626745596809423e-01 1.270980402677171e-01 1.543123452109318e-02 1.296453910243387e-01 2.265604056282120e-02
            -3.117525548379762e-01 -3.627390227826122e-01 4.477774156758727e-01 -4.055566160275714e-01 1.296715956444807e-01 2.262506069472970e-02 1.270630574966069e-01 1.536957495323754e-02
143381150.9591326118 1.314840757129949e-01 -7.171840390295475e-03 1.318041452293224e-01 3.084132338630307e-03 3.803201274128017e-01 -4.688387017842032e-01 -3.633277237121882e-01 -3.100736445533618e-01
            1.317758234925596e-01 3.032226353549957e-03 1.315234203366078e-01 -7.138302751754625e-03 -3.632782441221900e-01 -3.099677914508701e-01 3.804089043825184e-01 -4.688055358963985e-01
            3.804283714564198e-01 -4.687977423920082e-01 -3.633163750741781e-01 -3.100948582218691e-01 1.299741329059915e-01 -5.053190149267936e-05 1.336822879101131e-01 7.294879270432160e-03
            -3.633046384898609e-01 -3.100874925526718e-01 3.803643326770842e-01 -4.688204757021434e-01 1.337268867767218e-01 7.292146890402806e-03 1.299641737006824e-01 -3.609933794998634e-05
143880733.9449541271 1.290560826389080e-01 -2.319424423866321e-02 1.297793243206841e-01 -1.235804489090966e-02 3.039578404178733e-01 -5.215893904575469e-01 -4.061408241638945e-01 -2.508319099854990e-01
            1.298418420227861e-01 -1.241804774839242e-02 1.290940644181733e-01 -2.315153329271768e-02 -4.061731263505055e-01 -2.508132854798775e-01 3.040129235243097e-01 -5.216328893926663e-01
            3.039413623723589e-01 -5.217115671670873e-01 -4.061688611219615e-01 -2.508388088304839e-01 1.280527615117268e-01 -1.551528484204182e-02 1.328463291090740e-01 -8.460716069682626e-03
            -4.061346820756872e-01 -2.509086489494610e-01 3.039548171151509e-01 -5.216107248622240e-01 1.327433821233903e-01 -8.452405909130784e-03 1.280002070171158e-01 -1.554915013188799e-02
144380316.9307756424 1.217872338032621e-01 -3.779522751080761e-02 1.231605953906022e-01 -2.639475212148066e-02 2.199811766387495e-01 -5.627213579026745e-01 -4.398988082047406e-01 -1.863278017475657e-01
            1.231483824756583e-01 -2.649901878162720e-02 1.217632610780422e-01 -3.783322201837097e-02 -4.398771953221946e-01 -1.863870955124310e-01 2.200110724259276e-01 -5.627151015141072e-01
            2.200813567652014e-01 -5.627096128132897e-01 -4.398094630996482e-01 -1.864137663160972e-01 1.213757583165149e-01 -2.976676577779493e-02 1.271579972579570e-01 -2.303782654982682e-02
            -4.399144149332926e-01 -1.863697411871517e-01 2.200499043379552e-01 -5.627284550428676e-01 1.272582316908823e-01 -2.313392586079103e-02 1.213265497003121e-01 -2.978018180776233e-02
144879899.9165971577 1.101139881897265e-01 -4.959311328197397e-02 1.123397491582393e-01 -3.783057980958364e-02 1.301998015744825e-01 -5.907103488017066e-01 -4.639238285527991e-01 -1.178933504519079e-01
            1.123996753959328e-01 -3.782860467242054e-02 1.101224449926479e-01 -4.959631049227538e-02 -4.639395878504772e-01 -1.178925794843964e-01 1.301558845054338e-01 -5.907288204808703e-01
            1.302165359234126e-01 -5.907355423050069e-01 -4.639479239000853e-01 -1.178392087266825e-01 1.105092793348880e-01 -4.126070143615922e-02 1.173196388208892e-01 -3.527830159525173e-02
            -4.639423252477190e-01 -1.179274714212668e-01 1.301492140679224e-01 -5.906916730352186e-01 1.173964705694601e-01 -3.529966895045447e-02 1.105205880996777e-01 -4.130707839828370e-02
145379482.9024186730 9.519024623122137e-02 -5.745699234031900e-02 9.860608192320661e-02 -4.545017006449807e-02 3.620209769231983e-02 -6.044069121507774e-01 -4.780059530220795e-01 -4.634634473050869e-02
            9.856353384241434e-02 -4.540649664368651e-02 9.521269158558554e-02 -5.734952772920899e-02 -4.779728594909953e-01 -4.641906343327671e-02 3.619344487816096e-02 -6.044682973648641e-01
            3.623153918343584e-02 -6.044789502443602e-01 -4.780387802075881e-01 -4.641256573219212e-02 9.646562242794425e-02 -4.893965513646620e-02 1.040974607424478e-01 -4.395442445112877e-02
            -4.779250497321310e-01 -4.640016153792426e-02 3.624032500887502e-02 -6.044735883848725e-01 1.041739343087027e-01 -4.390194025841899e-02 9.650884639157427e-02 -4.896131056904958e-02
145879065.8882401884 7.826879106972946e-02 -6.037402538257051e-02 8.280108903312010e-02 -4.834372038534816e-02 -5.949197546487933e-02 -6.030852612399121e-01 -4.818893695231221e-01 2.683712834638159e-02
            8.279531528596387e-02 -4.827508259047797e-02 7.834234576896884e-02 -6.037880320108768e-02 -4.819074151227407e-01 2.690282188062511e-02 -5.952056835431164e-02 -6.031218066719628e-01
            -5.948890568477096e-02 -6.031261998106932e-01 -4.818263888887768e-01 2.694924600144584e-02 8.051354859414976e-02 -5.175103871769543e-02 8.877418857721960e-02 -4.793910578884832e-02
            -4.817864773748379e-01 2.681913758641067e-02 -5.957891983917814e-02 -6.031377295939897e-01 8.882111270049318e-02 -4.793660702807192e-02 8.045465119985343e-02 -5.184643187912653e-02
146378648.8740617335 6.100822690168099e-02 -5.783929017209888e-02 6.675327088019467e-02 -4.605857735645749e-02 -1.542190774069036e-01 -5.860880221791162e-01 -4.748721916589620e-01 1.008998112227024e-01
            6.669858754341490e-02 -4.607759701567964e-02 6.107592666456611e-02 -5.783720377177222e-02 -4.748392391154742e-01 1.008855655396310e-01 -1.542825654696167e-01 -5.861121428051120e-01
            -1.542607296622711e-01 -5.861659184763617e-01 -4.747959627390880e-01 1.009145883188710e-01 6.423124972948174e-02 -4.941299103108242e-02 7.280550128651114e-02 -4.686244743495199e-02
            -4.748440858216686e-01 1.008243214113626e-01 -1.542822064124687e-01 -5.861361090857486e-01 7.284342150678171e-02 -4.694067864370149e-02 6.418413340087148e-02 -4.941510562214527e-02
146878231.8598832488 4.517053755972386e-02 -4.998255213591289e-02 5.206260313920700e-02 -3.853891939222643e-02 -2.454023314224956e-01 -5.536257100801337e-01 -4.566374916899799e-01 1.740106035469470e-01
            5.205821908719350e-02 -3.862409905375055e-02 4.509367674941080e-02 -4.989289613791582e-02 -4.566708389490525e-01 1.739555329489088e-01 -2.454186023464354e-01 -5.536330090878097e-01
            -2.454006831278837e-01 -5.535954735514478e-01 -4.566479142806910e-01 1.739324565199299e-01 4.925251599243410e-02 -4.184332458273354e-02 5.801065462858421e-02 -4.070486476586847e-02
            -4.566448918873114e-01 1.739617783282925e-01 -2.454064346336380e-01 -5.535996863086472e-01 5.804943766274521e-02 -4.072529347491250e-02 4.929126692003083e-02 -4.195490591352163e-02
147377814.8457047641 3.234318968432306e-02 -3.719621545001995e-02 4.038849810967263e-02 -2.666026333863602e-02 -3.298767519348150e-01 -5.064183067978862e-01 -4.270419218131552e-01 2.446662651978879e-01
            4.035491939797035e-02 -2.673322409866661e-02 3.239603584510903e-02 -3.725055272272487e-02 -4.269738847070126e-01 2.445829073521255e-01 -3.298616069325536e-01 -5.064427621907737e-01
            -3.298104209265299e-01 -5.064243815189133e-01 -4.269826969730380e-01 2.445995959551861e-01 3.737147426748528e-02 -2.965984171931234e-02 4.603294392331236e-02 -2.995764476139663e-02
            -4.268993328898306e-01 2.445913945774919e-01 -3.298449498678543e-01 -5.063584098383812e-01 4.590812401189315e-02 -2.999502548055304e-02 3.747405582605846e-02 -2.967743163333494e-02
147877397.8315262794 2.413057090337390e-02 -2.096732007362507e-02 3.310737953945110e-02 -1.142302841694758e-02 -4.051563448489439e-01 -4.458812005402309e-01 -3.859098504017776e-01 3.107513307212966e-01
            3.309967607777021e-02 -1.135707522781297e-02 2.409367582773335e-02 -2.093972011711477e-02 -3.859225143597997e-01 3.107987711118552e-01 -4.050369692920307e-01 -4.458359445346787e-01
            -4.050920822432832e-01 -4.458647989139663e-01 -3.858885101777785e-01 3.107768238667614e-01 2.990114471070501e-02 -1.420086788862061e-02 3.800237453418806e-02 -1.580390178348576e-02
            -3.859059895195631e-01 3.108160790881744e-01 -4.051108179991122e-01 -4.458533538152819e-01 3.804331808949636e-02 -1.580422068625884e-02 2.997519069081413e-02 -1.411207108555846e-02
148376980.8173477948 2.139861497032545e-02 -2.786087235099588e-03 3.117549001223516e-02 5.587399778311292e-03 -4.687212159647005e-01 -3.740462997142862e-01 -3.338836990086299e-01 3.702844279816875e-01
            3.117274607387462e-02 5.543295658987158e-03 2.145193912315408e-02 -2.768052138688905e-03 -3.338460211113403e-01 3.701897752527094e-01 -4.686854634949399e-01 -3.741582149226583e-01
            -4.687326826862556e-01 -3.741305713128772e-01 -3.338388812967284e-01 3.702144195577954e-01 2.793640362253890e-02 3.184040291693855e-03 3.529150158512861e-02 3.709663542474294e-04
            -3.338418904331409e-01 3.702630336554376e-01 -4.687909017276638e-01 -3.740516026602736e-01 3.524776916479124e-02 2.930815480183852e-04 2.796149915731732e-02 3.091696702386842e-03
148876563.8031693101 2.457459190997177e-02 1.533560418701471e-02 3.483480571273288e-02 2.230258364777810e-02 -5.191935390138035e-01 -2.936182403681851e-01 -2.718513390678720e-01 4.208635328360276e-01
            3.488566058001213e-02 2.224971082956892e-02 2.452160901100811e-02 1.539053408081601e-02 -2.718354466944354e-01 4.208724657513941e-01 -5.192121946834373e-01 -2.935626032081450e-01
            -5.192113575703361e-01 -2.935915709461346e-01 -2.717744901458802e-01 4.209325093336977e-01 3.159724935347044e-02 2.037228796203897e-02 3.782974154560764e-02 1.638230265968000e-02
            -2.718908917130748e-01 4.208810984344579e-01 -5.192399422953244e-01 -2.935823891921347e-01 3.781157017700822e-02 1.634725402463396e-02 3.163810971496827e-02 2.035328641743890e-02
149376146.7889908254 3.326863247996022e-02 3.154567629950995e-02 4.381492103570798e-02 3.700813276508648e-02 -5.554518476339817e-01 -2.070348319288153e-01 -2.016887569266846e-01 4.607828296544387e-01
            4.381267922863515e-02 3.706219738484880e-02 3.312475125942099e-02 3.153921156583826e-02 -2.016612694841546e-01 4.606968669115453e-01 -5.554389706089866e-01 -2.070292711361446e-01
            -5.554377720571467e-01 -2.070186344974325e-01 -2.016378813164186e-01 4.607277076302568e-01 4.058271433958852e-02 3.559304848751511e-02 4.570720016352735e-02 3.065893260023243e-02
            -2.015895901154780e-01 4.606661141822805e-01 -5.555185333633824e-01 -2.071079405071870e-01 4.566990449402095e-02 3.064030414460197e-02 4.059140982830916e-02 3.553578105955982e-02
149875729.7748123407 4.633812776611379e-02 4.409823933760756e-02 5.696783099393044e-02 4.804459825735229e-02 -5.772965283057206e-01 -1.171297985628830e-01 -1.254316332260065e-01 4.881487697319302e-01
            5.702484611196722e-02 4.806102850676197e-02 4.636936375984833e-02 4.415886949656447e-02 -1.253850498357082e-01 4.881704419024777e-01 -5.772907835679588e-01 -1.171579933793155e-01
            -5.773134648372847e-01 -1.171199741315193e-01 -1.254829678553848e-01 4.882154016885848e-01 5.395338092092683e-02 4.709689309239910e-02 5.761785724287323e-02 4.155155618328861e-02
            -1.255016050851546e-01 4.881265799109565e-01 -5.772265460361831e-01 -1.171154257793321e-01 5.769499566654791e-02 4.158787506481175e-02 5.394484944447873e-02 4.709605334782405e-02
150375312.7606338561 6.261856942564789e-02 5.186585936991071e-02 7.290602641907605e-02 5.435190116107799e-02 -5.848047520999815e-01 -2.621395010657726e-02 -4.570050382329010e-02 5.022870172601465e-01
            7.296990174935004e-02 5.439634292151041e-02 6.258531652621936e-02 5.193239359125060e-02 -4.571846001085063e-02 5.022495832903122e-01 -5.847735197128187e-01 -2.626540686115587e-02
            -5.846911583897321e-01 -2.628844093181877e-02 -4.574102941724952e-02 5.022162454058772e-01 7.017369262272298e-02 5.392604277661911e-02 7.246600103461083e-02 4.802389947698888e-02
            -4.574753494716243e-02 5.023017291089054e-01 -5.847427913185151e-01 -2.629990065829982e-02 7.242013008124162e-02 4.796486174738564e-02 7.020355578999116e-02 5.394006017222071e-02
150874895.7464553714 8.008464874005970e-02 5.429557372445101e-02 8.998064791218738e-02 5.541344633806271e-02 -5.785425557168761e-01 6.346237917012065e-02 3.495274304895890e-02 5.028807717711389e-01
            8.999022487455144e-02 5.539445676909911e-02 8.015949737920838e-02 5.442723701450190e-02 3.494458337888236e-02 5.029522843652909e-01 -5.784858773946268e-01 6.341849573028077e-02
            -5.784708907396066e-01 6.334754757115935e-02 3.495243388768225e-02 5.028224969168786e-01 8.765905683894622e-02 5.530796703263319e-02 8.836256214150991e-02 4.929965740499861e-02
            3.492121004742044e-02 5.028909989873531e-01 -5.784995255101802e-01 6.344808450155009e-02 8.839968332251970e-02 4.931762007942694e-02 8.764190535470809e-02 5.535154242865636e-02
151374478.7322768867 9.740752447227413e-02 5.140758588015380e-02 1.063893806735374e-01 5.108396780669376e-02 -5.593067308566239e-01 1.502269438881730e-01 1.138759799477990e-01 4.902959083789266e-01
            1.063703241218319e-01 5.111532638707500e-02 9.743261429183345e-02 5.140147223950788e-02 1.139023009729654e-01 4.902302213636745e-01 -5.593002087408296e-01 1.502542854392420e-01
            -5.593252881462930e-01 1.502909486208820e-01 1.138500929998291e-01 4.902476107402930e-01 1.045569877740622e-01 5.145270181559521e-02 1.039294380544861e-01 4.555584008904656e-02
            1.139108729274213e-01 4.902925566806637e-01 -5.593309961519716e-01 1.502350722404569e-01 1.038927648834173e-01 4.565188892402935e-02 1.045536657772810e-01 5.142715079251069e-02
151874061.7180984318 1.126604458001995e-01 4.350441496091725e-02 1.206025483217598e-01 4.212910795623530e-02 -5.280056625520090e-01 2.327197131203908e-01 1.891159027777272e-01 4.652682375047120e-01
            1.206701865463412e-01 4.199982517872808e-02 1.126863128523181e-01 4.356644257988377e-02 1.891268771923998e-01 4.652949972930140e-01 -5.279556903375252e-01 2.326914264016596e-01
            -5.279366791990087e-01 2.327212203767911e-01 1.890648336671660e-01 4.652877180401246e-01 1.194189122959340e-01 4.262955661749174e-02 1.173274995432170e-01 3.726271637553086e-02
            1.891377947397775e-01 4.652692135126488e-01 -5.279093529119705e-01 2.326482519608953e-01 1.173172192155673e-01 3.734697384152864e-02 1.194404653276244e-01 4.269399369657634e-02
152373644.7039199471 1.247308515788405e-01 3.161539357138202e-02 1.314824196754849e-01 2.928595422067448e-02 -4.851939330556992e-01 3.093474337766363e-01 2.586020332067591e-01 4.291865749459717e-01
            1.315010964584063e-01 2.923569456701616e-02 1.247127133823556e-01 3.163126295521217e-02 2.585598312363518e-01 4.291710659715422e-01 -4.852904870883273e-01 3.093060799602825e-01
            -4.852551651598581e-01 3.092610619334695e-01 2.586803499216825e-01 4.291514375915371e-01 1.310092588610858e-01 2.996351010631473e-02 1.276411423744259e-01 2.525062390374842e-02
            2.586083299797797e-01 4.291165730505814e-01 -4.852394881394195e-01 3.093213615455956e-01 1.276249510570089e-01 2.524623645670253e-02 1.309968249921256e-01 3.003068692090569e-02
152873227.6897414625 1.325133934174491e-01 1.695969540679557e-02 1.380229861754384e-01 1.383327403267867e-02 -4.319917223897559e-01 3.789565627651809e-01 3.211443595169509e-01 3.832391522841979e-01
            1.380295571344062e-01 1.383209173858619e-02 1.325412998550824e-01 1.685605658341259e-02 3.211245857662473e-01 3.832659886975718e-01 -4.319787798419786e-01 3.789681363192404e-01
            -4.319242347976811e-01 3.788617327703316e-01 3.210537228474871e-01 3.832614144030786e-01 1.383100084463640e-01 1.461081409534923e-02 1.337582897965061e-01 1.071281675248633e-02
            3.210976353733481e-01 3.832818570893745e-01 -4.319707841134927e-01 3.789287114561837e-01 1.337596708392020e-01 1.077062068449706e-02 1.382358783305361e-01 1.455868410685460e-02
153372810.6755629778 1.356384200216655e-01 7.476490632988283e-04 1.397993606189422e-01 -2.797381057250822e-03 -3.691020120683178e-01 4.401500289335365e-01 3.753739080266997e-01 3.291245408520341e-01
            1.397351423677279e-01 -2.762803031578618e-03 1.356462696418948e-01 6.140237822574084e-04 3.754794207539401e-01 3.290325728781433e-01 -3.689904119454006e-01 4.402611536324275e-01
            -3.690123919390352e-01 4.402228420895008e-01 3.753902197283710e-01 3.290019228328196e-01 1.407199703221101e-01 -2.202839937025984e-03 1.352739051787916e-01 -5.104550711586898e-03
            3.755236330922872e-01 3.290560821266600e-01 -3.690715860013160e-01 4.402662659137458e-01 1.353078772890238e-01 -5.072645178503910e-03 1.406380215384734e-01 -2.197321358908438e-03
153872393.6613844931 1.337364602506593e-01 -1.560041960872152e-02 1.364775263504658e-01 -1.920844070753481e-02 -2.973478925281607e-01 4.918403204992764e-01 4.208536551378337e-01 2.679448554451037e-01
            1.364147938026319e-01 -1.913584835978254e-02 1.337565694424704e-01 -1.556600714294066e-02 4.208150994453604e-01 2.679493471079585e-01 -2.973490394606102e-01 4.919652678357497e-01
            -2.974067371645223e-01 4.918543879450101e-01 4.208748342173285e-01 2.679292394572719e-01 1.380212059617700e-01 -1.890184190417536e-02 1.319399805821768e-01 -2.074243405144204e-02
            4.208347800661693e-01 2.679567102574048e-01 -2.974065951590456e-01 4.918885498241722e-01 1.318459421211813e-01 -2.073852824409785e-02 1.380479260970558e-01 -1.892727195828228e-02
154371976.6472060084 1.272872914048192e-01 -3.038374240609207e-02 1.284101405240156e-01 -3.397269812198455e-02 -2.181994798196611e-01 5.325308145221728e-01 4.569299074304078e-01 2.012313975356172e-01
            1.284908547964488e-01 -3.394822093377711e-02 1.271807795987874e-01 -3.034846267532911e-02 4.568805841937114e-01 2.013467511330603e-01 -2.181556772732053e-01 5.324554859904125e-01
            -2.181729855686423e-01 5.324707645189163e-01 4.568238728597815e-01 2.012340985221918e-01 1.306518208393968e-01 -3.413486224674192e-02 1.239365708747211e-01 -3.477782393373567e-02
            4.568928586602811e-01 2.012731184079735e-01 -2.182839323678286e-01 5.324187471694555e-01 1.238922425912709e-01 -3.480677063542056e-02 1.306367282408436e-01 -3.412828474554257e-02
154871559.6330275238 1.163216815528295e-01 -4.256189057516672e-02 1.164280825444734e-01 -4.587951020969336e-02 -1.329998440328734e-01 5.607128759189791e-01 4.830034487074032e-01 1.301466413259231e-01
            1.162822084193307e-01 -4.590064820353493e-02 1.164114932427507e-01 -4.260323052075477e-02 4.828741435450466e-01 1.300855068961648e-01 -1.329080221303328e-01 5.607413174527016e-01
            -1.329830278012902e-01 5.607684465946920e-01 4.829047553992045e-01 1.300543164847139e-01 1.190455999016833e-01 -4.643481536806202e-02 1.120989286556910e-01 -4.587408187789598e-02
            4.829705949232683e-01 1.300806431764676e-01 -1.330032324085572e-01 5.607518861665330e-01 1.120702593535746e-01 -4.596849597400191e-02 1.190669571209588e-01 -4.647412149364127e-02
155371142.6188490391 1.023300065977415e-01 -5.077929010945947e-02 1.011633781131675e-01 -5.356396146208624e-02 -4.359062344020209e-02 5.754343968866287e-01 4.987369888544166e-01 5.566281912411768e-02
            1.011376177886806e-01 -5.361955898434751e-02 1.022869901491475e-01 -5.068962592884391e-02 4.987780940331291e-01 5.570995668649285e-02 -4.361298822591722e-02 5.754766831148078e-01
            -4.356715338092017e-02 5.754905654628580e-01 4.987348747763107e-01 5.570842188442126e-02 1.043225568045204e-01 -5.471589130530041e-02 9.715526377488043e-02 -5.308640035669272e-02
            4.987576793796290e-01 5.566934153988991e-02 -4.363496467992819e-02 5.754563022176896e-01 9.718943748294658e-02 -5.306523319364440e-02 1.042662271589415e-01 -5.470622807873544e-02
155870725.6046705544 8.634033946146273e-02 -5.428506930676111e-02 8.413387199500043e-02 -5.637241171353430e-02 4.781729535498229e-02 5.756872952813834e-01 5.037592120651047e-01 -2.084464013601916e-02
            8.411653797976928e-02 -5.641376039277261e-02 8.630264781572126e-02 -5.427748419199983e-02 5.038225970397807e-01 -2.076354297884427e-02 4.778155529243398e-02 5.757531323542444e-01
            4.778252458260743e-02 5.756453167627049e-01 5.036982480131705e-01 -2.083990507190364e-02 8.763633157281127e-02 -5.813920887228396e-02 8.055587645747893e-02 -5.547871851753314e-02
            5.038233061861437e-01 -2.080035669897392e-02 4.776004692880192e-02 5.756735211958375e-01 8.052333047775603e-02 -5.545665142354500e-02 8.768508891260254e-02 -5.812926118825074e-02
156370308.5904920697 7.001568147182412e-02 -5.249827162682619e-02 6.691844954463494e-02 -5.393830041626847e-02 1.386327854285192e-01 5.609525372108947e-01 4.975698748516294e-01 -9.810878547444651e-02
            6.687607318683057e-02 -5.399246498449828e-02 7.002863965280387e-02 -5.252045236727251e-02 4.975724832996894e-01 -9.802393595236382e-02 1.385886523434857e-01 5.608616945152046e-01
            1.386190477003057e-01 5.609066294430596e-01 4.974799271448229e-01 -9.814722002532288e-02 7.077183446838752e-02 -5.628775014860089e-02 6.376630262898790e-02 -5.243226530490511e-02
            4.975824967323944e-01 -9.809511050999531e-02 1.385671506033544e-01 5.609225372482393e-01 6.372897613134325e-02 -5.244978335484495e-02 7.067672608069184e-02 -5.628427821509494e-02
156869891.5763135850 5.507321850930075e-02 -4.557435069008631e-02 5.117271956912412e-02 -4.615939298508140e-02 2.260804487624520e-01 5.311901208361512e-01 4.795069454490428e-01 -1.747655494218580e-01
            5.122306897744194e-02 -4.620139469778883e-02 5.509245658594707e-02 -4.554259787801105e-02 4.795565298933642e-01 -1.747591361100171e-01 2.261047762794244e-01 5.312733129443759e-01
            2.261037992007851e-01 5.311667956172668e-01 4.795769565997631e-01 -1.747383756827235e-01 5.519678589312437e-02 -4.920991362385953e-02 4.854666004447529e-02 -4.437994733337845e-02
            4.795320403565942e-01 -1.747632780556108e-01 2.260395529284108e-01 5.311832781714115e-01 4.846922387339019e-02 -4.439584417273112e-02 5.520083129811443e-02 -4.924118062006696e-02
157369474.5621351302 4.315889316920998e-02 -3.416189963609007e-02 3.872459398776947e-02 -3.382411058889653e-02 3.073896808940521e-01 4.872607282992065e-01 4.495967756239781e-01 -2.488094861792622e-01
            3.859775088833570e-02 -3.378526425135239e-02 4.314531716981503e-02 -3.418116002542254e-02 4.496320309990231e-01 -2.489066690623950e-01 3.073961678174651e-01 4.872866371720874e-01
            3.073738353068051e-01 4.872848568666404e-01 4.494984184619640e-01 -2.488857841365147e-01 4.284130474646280e-02 -3.747617908669553e-02 3.651394154042696e-02 -3.185086405561058e-02
            4.495173840903093e-01 -2.488550516920237e-01 3.073921058874099e-01 4.872112774765116e-01 3.636540258237278e-02 -3.179866504852664e-02 4.274564882378927e-02 -3.753156597077339e-02
157869057.5479566455 3.559047802539259e-02 -1.945541290412658e-02 3.053603782155237e-02 -1.811139619923733e-02 3.800442127101671e-01 4.304180393104738e-01 4.075631018826409e-01 -3.183830703766494e-01
            3.067649368851767e-02 -1.817751786512582e-02 3.550790904383191e-02 -1.953555166025247e-02 4.075494126910520e-01 -3.184748797008020e-01 3.800562338273224e-01 4.303754143766938e-01
            3.800218730464355e-01 4.304665486732137e-01 4.075676586178815e-01 -3.184448457604206e-01 3.473785665956801e-02 -2.244549996613997e-02 2.893549953605089e-02 -1.596230277764718e-02
            4.075163491684913e-01 -3.184598221531139e-01 3.800074673439768e-01 4.304460890775265e-01 2.894434565734951e-02 -1.594989783324763e-02 3.474061284936877e-02 -2.245925899488389e-02
158368640.5337781608 3.306895501937709e-02 -3.101201649517732e-03 2.791890132436324e-02 -7.486829882518511e-04 4.416499654662033e-01 3.627032964976795e-01 3.541062277853069e-01 -3.810480962455652e-01
            2.794006238762793e-02 -7.472189255620997e-04 3.313315189367681e-02 -3.010515612990889e-03 3.540578407212215e-01 -3.810712354235954e-01 4.416914381288923e-01 3.626783683733159e-01
            4.417193003683290e-01 3.627666401552601e-01 3.540708028965650e-01 -3.810586331751492e-01 3.209044842877889e-02 -5.693388363028666e-03 2.679848647848398e-02 1.428635255399068e-03
            3.540752822876783e-01 -3.811089779099117e-01 4.416411931670712e-01 3.627198070994355e-01 2.683647409110541e-02 1.494549957602473e-03 3.205470880635117e-02 -5.632143234485968e-03
158868223.5195996761 3.633517112096737e-02 1.324691496042938e-02 3.099196887451726e-02 1.650180708140219e-02 4.906970860227126e-01 2.865775010622286e-01 2.902195833741659e-01 -4.346686161984470e-01
            3.096385424528972e-02 1.647720196657864e-02 3.631316675883496e-02 1.319175388307087e-02 2.902740574195204e-01 -4.346677093727946e-01 4.907803766126564e-01 2.865093329560862e-01
            4.907524752611346e-01 2.866013203609341e-01 2.901880455105742e-01 -4.347082929950318e-01 3.501581192341436e-02 1.087901041553201e-02 3.046040772988576e-02 1.869223957941278e-02
            2.902638120730370e-01 -4.346511252023382e-01 4.907185856247199e-01 2.866423023325961e-01 3.033813734366790e-02 1.864064477690320e-02 3.505073527664476e-02 1.084371035125197e-02
159367806.5054211915 4.454328908072650e-02 2.756771463624905e-02 3.930772575082581e-02 3.175087160341274e-02 5.264101283940532e-01 2.045130471507592e-01 2.177156639490506e-01 -4.770201510174681e-01
            3.927172779249914e-02 3.181722914676605e-02 4.458032613540611e-02 2.754248191763587e-02 2.177718170574530e-01 -4.770832265863599e-01 5.263762690549055e-01 2.044751850722346e-01
            5.263824543137007e-01 2.045097095941698e-01 2.177851134539879e-01 -4.771181052006339e-01 4.318314312899268e-02 2.541842230753402e-02 3.912394833990691e-02 3.374181464734460e-02
            2.177132130874626e-01 -4.771165808682581e-01 5.264182104536127e-01 2.045168110845438e-01 3.910243294114201e-02 3.373675624262769e-02 4.325256554244623e-02 2.537383176674166e-02
159867389.4912427068 5.684578207511041e-02 3.816976222092900e-02 5.182288425546282e-02 4.339433501101089e-02 5.482697823322168e-01 1.191638877989097e-01 1.389741796063549e-01 -5.067711947998786e-01
            5.185029916475235e-02 4.347383302662732e-02 5.678571396257043e-02 3.815121301865818e-02 1.389117363113700e-01 -5.067837962678585e-01 5.481433565691993e-01 1.191226860258133e-01
            5.482066086463977e-01 1.191011241744540e-01 1.389503972638859e-01 -5.068156359698280e-01 5.550436384330397e-02 3.635363579574183e-02 5.212553774509744e-02 4.516633394570755e-02
            1.389265828916487e-01 -5.068047846987304e-01 5.482515604257236e-01 1.191259620335902e-01 5.210490992875877e-02 4.516792074471812e-02 5.545803972196294e-02 3.637071273458587e-02
160366972.4770642221 7.195666142318229e-02 4.432918482631489e-02 6.721190104837016e-02 5.039265778360248e-02 5.565244515944123e-01 3.256860497942501e-02 5.627960692232824e-02 -5.227121565131599e-01
            6.720808925609119e-02 5.049429730853933e-02 7.194179993824650e-02 4.434303109932309e-02 5.629204076188894e-02 -5.227473641485675e-01 5.565445515630771e-01 3.262514757593758e-02
            5.565001332605541e-01 3.261330687399564e-02 5.624493026746618e-02 -5.228132040434097e-01 7.046964054132991e-02 4.266587582711059e-02 6.778276910489400e-02 5.181019720527721e-02
            5.627276319989907e-02 -5.228013164064909e-01 5.564485397574788e-01 3.257321512443780e-02 6.776840977140162e-02 5.181318876428021e-02 7.051089776264259e-02 4.271977716698024e-02
160866555.4628857374 8.799585652953218e-02 4.536954977840294e-02 8.361151810470545e-02 5.222888051958748e-02 5.516971629476850e-01 -5.301450069033280e-02 -2.752792455322661e-02 -5.248973389743247e-01
            8.363429035383572e-02 5.224063278724152e-02 8.790969056321420e-02 4.537015364498417e-02 -2.754410002845700e-02 -5.248151978703800e-01 5.517498855259099e-01 -5.302839442018396e-02
            5.516681499965849e-01 -5.290049789416429e-02 -2.747355197434326e-02 -5.248188165163333e-01 8.650999641964016e-02 4.379079412956240e-02 8.460936629788079e-02 5.314142556579571e-02
            -2.750424047167381e-02 -5.248355781573931e-01 5.516319592297321e-01 -5.294744221656478e-02 8.454419659891410e-02 5.313564787308409e-02 8.655336578527938e-02 4.381524915464968e-02
161366138.4487072527 1.032555798114876e-01 4.133443034466290e-02 9.962302211984535e-02 4.881442821181330e-02 5.344092638919293e-01 -1.359090150991643e-01 -1.099400248100630e-01 -5.132188406659119e-01
            9.964102389472117e-02 4.883725804049168e-02 1.033459195486546e-01 4.125971996094916e-02 -1.099242955979152e-01 -5.132295094484476e-01 5.344533963817881e-01 -1.358809546812351e-01
            5.344395133403486e-01 -1.359902552149720e-01 -1.099739800264447e-01 -5.132226995023065e-01 1.019176837356572e-01 3.979398325767161e-02 1.006581921629308e-01 4.946633176947617e-02
            -1.099606838664650e-01 -5.131859651429063e-01 5.344678596269744e-01 -1.359778667097324e-01 1.006481329437012e-01 4.935659688359710e-02 1.018786454428589e-01 3.982700786535004e-02
161865721.4345287681 1.165892365782627e-01 3.278904112450477e-02 1.135046467080621e-01 4.081790531120185e-02 5.055499079836208e-01 -2.148385119113454e-01 -1.887222021067212e-01 -4.887207615018501e-01
            1.135208638166493e-01 4.092445164818521e-02 1.165535417005126e-01 3.274862075389347e-02 -1.886773067436625e-01 -4.887363341087193e-01 5.056922734894025e-01 -2.148386694099824e-01
            5.055637998028470e-01 -2.148558507333646e-01 -1.886217578950224e-01 -4.887085210835625e-01 1.152080349025574e-01 3.134093996047116e-02 1.146148187314448e-01 4.087894343706750e-02
            -1.887747957348778e-01 -4.886931665722424e-01 5.056045675134916e-01 -2.148673880755325e-01 1.146533455121117e-01 4.087387728564579e-02 1.151593825117176e-01 3.122643438289108e-02
162365304.4203502834 1.264038135307894e-01 2.069819358752844e-02 1.241311249693025e-01 2.918831912752453e-02 4.658592102350758e-01 -2.884437002077331e-01 -2.618784888123927e-01 -4.526080427677274e-01
            1.242464939237644e-01 2.915506768231304e-02 1.264451765121260e-01 2.069588991696280e-02 -2.618480545181697e-01 -4.525333281809168e-01 4.658036740388370e-01 -2.884807764133564e-01
            4.658433480182348e-01 -2.884812534047823e-01 -2.618364501862278e-01 -4.525316795235114e-01 1.250814218156752e-01 1.904364743765278e-02 1.252151041706638e-01 2.871937265981431e-02
            -2.619308257066079e-01 -4.525041958383451e-01 4.658147551299349e-01 -2.884436747329086e-01 1.251725363997657e-01 2.867989160941790e-02 1.250477470526975e-01 1.914860408164069e-02
162864887.4061717987 1.321523798196494e-01 6.221234675581288e-03 1.307515595838616e-01 1.503062354215806e-02 4.158897402615137e-01 -3.555215210312541e-01 -3.280094947989786e-01 -4.060271170850940e-01
            1.307557515757715e-01 1.495222618909559e-02 1.321720796418950e-01 6.152206686579010e-03 -3.280252275895252e-01 -4.060154739623122e-01 4.158799038867459e-01 -3.555135801265636e-01
            4.159438555720018e-01 -3.555690498271816e-01 -3.279828697447735e-01 -4.060202525114603e-01 1.308325993718200e-01 4.476913151029430e-03 1.315817096308644e-01 1.402136010098439e-02
            -3.280783644742129e-01 -4.059871226931749e-01 4.159303128607603e-01 -3.554792000114554e-01 1.315838696762531e-01 1.401867594686775e-02 1.307641925478689e-01 4.514639665156033e-03
163364470.3919933438 1.332161664171772e-01 -9.336692199393320e-03 1.325202563992657e-01 -4.800956185464170e-04 3.565872415223592e-01 -4.147851321095445e-01 -3.859930887971282e-01 -3.505697706369675e-01
            1.325731870460986e-01 -4.090860952158600e-04 1.331965974654638e-01 -9.329107697929133e-03 -3.859342707189713e-01 -3.504911237366871e-01 3.565246598960806e-01 -4.147588278280294e-01
            3.565251178509818e-01 -4.147561208547331e-01 -3.859114499727238e-01 -3.505431071987173e-01 1.316895798612847e-01 -1.109760917969302e-02 1.330831831379532e-01 -1.731281734681704e-03
            -3.859791737484009e-01 -3.505962430813762e-01 3.566010834699976e-01 -4.148038460879006e-01 1.330678078544120e-01 -1.739277911694553e-03 1.317399752463292e-01 -1.113148095639300e-02
163864053.3778148592 1.295241239789646e-01 -2.442045006412595e-02 1.296202197138968e-01 -1.558083567202152e-02 2.885951249305007e-01 -4.647793033286539e-01 -4.347714956346734e-01 -2.876060426417966e-01
            1.296635992422983e-01 -1.561487076615414e-02 1.294768512186660e-01 -2.447683065473197e-02 -4.348472617581790e-01 -2.875502990968562e-01 2.886752812602532e-01 -4.647809604852972e-01
            2.887094147495841e-01 -4.648341896136717e-01 -4.347787471795383e-01 -2.875935982808768e-01 1.278074648088892e-01 -2.644255794833918e-02 1.296445237281506e-01 -1.723467015988022e-02
            -4.347904724441827e-01 -2.876257648045046e-01 2.887090637347446e-01 -4.648168746401908e-01 1.297069676906832e-01 -1.729176588148036e-02 1.277672999469208e-01 -2.638990177514745e-02
164363636.3636363745 1.212705862405162e-01 -3.774310886835933e-02 1.223624488964774e-01 -2.922834712570675e-02 2.134874690868036e-01 -5.043411183530887e-01 -4.738753397885328e-01 -2.184820653747837e-01
            1.223026324954515e-01 -2.913641553036012e-02 1.213588533764872e-01 -3.777279182142775e-02 -4.739602179199065e-01 -2.184851552100491e-01 2.134616062499489e-01 -5.043846524306741e-01
            2.135039359370188e-01 -5.044134897308309e-01 -4.739925642089029e-01 -2.184542745790423e-01 1.193820807122368e-01 -3.991273146474179e-02 1.218628569920172e-01 -3.099888716014220e-02
            -4.738610526475338e-01 -2.184149389887872e-01 2.135191136904882e-01 -5.044164393155715e-01 1.217783835097951e-01 -3.097149277249842e-02 1.193945927483934e-01 -3.986930186809648e-02
164863219.3494578898 1.093923473103337e-01 -4.808488353324133e-02 1.110973223930926e-01 -3.985487611964097e-02 1.325305169865321e-01 -5.320499063293886e-01 -5.026258429344056e-01 -1.442545982915030e-01
            1.110911574282658e-01 -3.992388903571596e-02 1.094690567728992e-01 -4.816433715773816e-02 -5.027390892764795e-01 -1.443019598249655e-01 1.323971426874294e-01 -5.320805182928263e-01
            1.324922089874343e-01 -5.320362383547483e-01 -5.027428786515760e-01 -1.442993512580245e-01 1.072012476321436e-01 -5.028365654743645e-02 1.101238566241982e-01 -4.175117026978296e-02
            -5.027175580252647e-01 -1.442882305477776e-01 1.324896151140819e-01 -5.320845450330236e-01 1.100884014072606e-01 -4.177030696177365e-02 1.072069363229647e-01 -5.035098445216480e-02
165362802.3352794051 9.474262398952968e-02 -5.428462261428979e-02 9.710390582063029e-02 -4.662036320675167e-02 4.730521637145824e-02 -5.467629957180290e-01 -5.206282302683254e-01 -6.645126181017592e-02
            9.709662427050550e-02 -4.665790789248860e-02 9.462316995287130e-02 -5.427765092922079e-02 -5.206072309502863e-01 -6.640863774891417e-02 4.727362587043521e-02 -5.467982708373968e-01
            4.730939240336747e-02 -5.468337542345270e-01 -5.205399675928819e-01 -6.642847986078873e-02 9.217493268445227e-02 -5.656427530031672e-02 9.539644896482058e-02 -4.843568328817379e-02
            -5.206003883720335e-01 -6.643575487846147e-02 4.725217715342753e-02 -5.467194702076290e-01 9.543350627172360e-02 -4.847605241707831e-02 9.225442519947177e-02 -5.652181991917885e-02
165862385.3211009204 7.869444820110344e-02 -5.569575396584539e-02 8.148228839242985e-02 -4.859400983780645e-02 -3.968013905734092e-02 -5.475969714456210e-01 -5.270869902010523e-01 1.394984494636210e-02
            8.148802326163415e-02 -4.868933503049118e-02 7.872980655522943e-02 -5.561447667537041e-02 -5.270070904232628e-01 1.389882190395858e-02 -3.977576429075264e-02 -5.476544564538370e-01
            -3.975658498016542e-02 -5.476148021646933e-01 -5.270469014553334e-01 1.393072902515948e-02 7.582045087916904e-02 -5.795219806352002e-02 7.932985198340010e-02 -5.023318338516024e-02
            -5.269738817441791e-01 1.389971359074774e-02 -3.985778055382720e-02 -5.476377906271809e-01 7.926420462435584e-02 -5.013755935751855e-02 7.581734663479381e-02 -5.798495518211980e-02
166361968.3069224358 6.284848634134980e-02 -5.192993883082127e-02 6.591467653167407e-02 -4.568893506448665e-02 -1.262822798397703e-01 -5.340625324379191e-01 -5.215004850488807e-01 9.522564961250200e-02
            6.599446605913226e-02 -4.558574730196231e-02 6.282282506994395e-02 -5.191838780150567e-02 -5.214135539884659e-01 9.523751037418089e-02 -1.263609659519722e-01 -5.340233741032017e-01
            -1.262968925662991e-01 -5.339987095046997e-01 -5.214844698503053e-01 9.525908314076360e-02 5.954740636794031e-02 -5.417516115622651e-02 6.328662511052859e-02 -4.670778171969236e-02
            -5.215117981226847e-01 9.519606216193691e-02 -1.262904482435248e-01 -5.340272828846760e-01 6.320712997423614e-02 -4.680609388091059e-02 5.952780872772070e-02 -5.415335368459753e-02
166861551.2927439511 4.882828931901184e-02 -4.323839347402144e-02 5.217764034405870e-02 -3.779053592232687e-02 -2.095812851819294e-01 -5.062232082647962e-01 -5.034558436612959e-01 1.758775336988660e-01
            5.210457508345506e-02 -3.769048055677187e-02 4.878790883129992e-02 -4.328640556594130e-02 -5.034450137471959e-01 1.758744008111431e-01 -2.095919937910697e-01 -5.061829060860801e-01
            -2.095791332473165e-01 -5.062019769075079e-01 -5.033860762370738e-01 1.760052083749966e-01 4.513990824264224e-02 -4.539320324720370e-02 4.905756329920986e-02 -3.822643933666346e-02
            -5.034306695306038e-01 1.759459345686710e-01 -2.096651393806005e-01 -5.061423045242034e-01 4.895819004525907e-02 -3.828886083030267e-02 4.518541424756696e-02 -4.536249301188518e-02
167361134.2785654664 3.814644180006489e-02 -3.039998323453434e-02 4.142520654175896e-02 -2.568978664957487e-02 -2.870106982513089e-01 -4.649217197738438e-01 -4.725658091776777e-01 2.538937051604153e-01
            4.142377198983527e-02 -2.581028370290472e-02 3.816963841616713e-02 -3.050465177687002e-02 -4.725679415637437e-01 2.538629574499544e-01 -2.870127250165347e-01 -4.648840201550525e-01
            -2.869814886473550e-01 -4.649183702608446e-01 -4.725839360173074e-01 2.539233980202790e-01 3.422296951031043e-02 -3.228856296310928e-02 3.810281682984541e-02 -2.556906547637790e-02
            -4.725726087434044e-01 2.538632306160481e-01 -2.869963028932762e-01 -4.648540784597859e-01 3.809964946795335e-02 -2.557582281181823e-02 3.417280600104292e-02 -3.235754362231980e-02
167860717.2643869817 3.218192578610540e-02 -1.476267525910027e-02 3.512801504673559e-02 -1.093644532770093e-02 -3.560368361622848e-01 -4.113880127900614e-01 -4.291518224061956e-01 3.270053885245547e-01
            3.513348864252062e-02 -1.091392523892407e-02 3.221471228638634e-02 -1.473063300154861e-02 -4.291126523557361e-01 3.269739565892646e-01 -3.559670888405994e-01 -4.114027597975610e-01
            -3.559601769098493e-01 -4.113881225353757e-01 -4.291308488092057e-01 3.270166925885661e-01 2.785133147973979e-02 -1.642418595172025e-02 3.179696091359487e-02 -9.881000169181062e-03
            -4.291383005096818e-01 3.270217877771777e-01 -3.560334500470158e-01 -4.114602343395058e-01 3.181386757242380e-02 -9.990908953989729e-03 2.791003552192873e-02 -1.639107892611902e-02
168360300.2502084970 3.154749980134897e-02 2.024485406108592e-03 3.403649361053084e-02 5.318873242469220e-03 -4.146244532803224e-01 -3.476801049182922e-01 -3.736603559062583e-01 3.928071445224597e-01
            3.411441334142130e-02 5.180977233691845e-03 3.159497533303697e-02 1.926161994475164e-03 -3.737130019572736e-01 3.927776083826702e-01 -4.145745142454785e-01 -3.477671462102518e-01
            -4.145391781153992e-01 -3.477243067179984e-01 -3.736657020206013e-01 3.928040105667451e-01 2.707021830038666e-02 7.026206597219565e-04 3.100752532648445e-02 7.056950042814547e-03
            -3.737808436929362e-01 3.927413403606748e-01 -4.146530779702793e-01 -3.477050141848479e-01 3.101054171775322e-02 6.941051921410615e-03 2.697980297544813e-02 6.789900956422379e-04
168859883.2360300422 3.633507695068275e-02 1.826973021798702e-02 3.832925583826857e-02 2.080727077060720e-02 -4.613915370189254e-01 -2.761062396956677e-01 -3.075028026653505e-01 4.490322137775103e-01
            3.834208513235495e-02 2.081435152347150e-02 3.632244921328718e-02 1.811354689084139e-02 -3.074345671427045e-01 4.490451960838284e-01 -4.614674499229324e-01 -2.761887551551030e-01
            -4.614633213700144e-01 -2.760890125459710e-01 -3.074817776778750e-01 4.490547303339255e-01 3.172974216438795e-02 1.721599395846666e-02 3.560218130967532e-02 2.307038955891778e-02
            -3.074989378810806e-01 4.489860064979379e-01 -4.614669367246096e-01 -2.760988372920198e-01 3.563370533596787e-02 2.309061779951769e-02 3.163557416536713e-02 1.715897141895016e-02
169359466.2218515575 4.598152076797670e-02 3.191063942354275e-02 4.726581685553601e-02 3.403554065498084e-02 -4.955874851170389e-01 -1.990001730490624e-01 -2.324586707351951e-01 4.935203078051838e-01
            4.724353112689895e-02 3.405187498036907e-02 4.599939763208083e-02 3.190548761712912e-02 -2.324230591439545e-01 4.935077657889554e-01 -4.956908164876327e-01 -1.990309885677655e-01
            -4.956671965835288e-01 -1.990555183927807e-01 -2.324502763227304e-01 4.935367307732652e-01 4.125296151085708e-02 3.113160720914986e-02 4.513775328774326e-02 3.704040563715610e-02
            -2.323463008410850e-01 4.935715314462262e-01 -4.956211816108814e-01 -1.989266046879615e-01 4.521937210493961e-02 3.698486359799151e-02 4.126449786404059e-02 3.119632041494094e-02
169859049.2076730728 5.944010483680857e-02 4.177959583054126e-02 5.997209695305867e-02 4.368667499628211e-02 -5.169730501385175e-01 -1.187784329923427e-01 -1.508926164773013e-01 5.250092574828820e-01
            5.996042284788514e-02 4.372686465184636e-02 5.940073460581370e-02 4.183311077108669e-02 -1.507681508817124e-01 5.249737463959706e-01 -5.169953292878210e-01 -1.187235560780611e-01
            -5.169532291155631e-01 -1.187491809158855e-01 -1.508192092450729e-01 5.249154196401743e-01 5.465195431098745e-02 4.134033774423591e-02 5.858008721341591e-02 4.694693567287737e-02
            -1.508273549086542e-01 5.250646171435588e-01 -5.169521396987713e-01 -1.187438203615114e-01 5.860558986416320e-02 4.697998457979068e-02 5.467656807824047e-02 4.128495529620572e-02
170358632.1934945881 7.515310256926828e-02 4.683552507010943e-02 7.477934675629858e-02 4.877917480629992e-02 -5.255714889542153e-01 -3.742208374050052e-02 -6.528798499815743e-02 5.422790478218429e-01
            7.481769205427168e-02 4.874420668222269e-02 7.512025984821877e-02 4.693218756629278e-02 -6.540016253197915e-02 5.423607546194011e-01 -5.257439354106217e-01 -3.742033367476624e-02
            -5.256449321772312e-01 -3.739269444127367e-02 -6.524875804403778e-02 5.423336569689656e-01 7.043393238502831e-02 4.664936419831585e-02 7.437545128371401e-02 5.219011332288027e-02
            -6.531193852947348e-02 5.422352397105846e-01 -5.256027229626909e-01 -3.732256651650810e-02 7.436523624583799e-02 5.217884306972521e-02 7.039528814736183e-02 4.657626239988027e-02
170858215.1793161035 9.148581672179666e-02 4.677442830491572e-02 9.047965025138355e-02 4.887382477129563e-02 -5.221209046931679e-01 4.330439744993451e-02 2.132423244666482e-02 5.452534486420391e-01
            9.047436555131144e-02 4.890221607161958e-02 9.151859767357916e-02 4.680997120965122e-02 2.145367574536488e-02 5.452660412192762e-01 -5.221006973872903e-01 4.328169187347942e-02
            -5.221043571396148e-01 4.320011595008396e-02 2.139613881143256e-02 5.451417530409041e-01 8.680759686178759e-02 4.662152449671680e-02 9.082649641281947e-02 5.220495103600230e-02
            2.137987011750749e-02 5.452834720031607e-01 -5.221460005359816e-01 4.322863760094747e-02 9.081147456274065e-02 5.218308293865453e-02 8.684289909412864e-02 4.675506933815035e-02
171357798.1651376188 1.068956433362228e-01 4.181445620502346e-02 1.051563588039332e-01 4.415081074994341e-02 -5.069017810747408e-01 1.217078977163346e-01 1.067646364419793e-01 5.341705007803770e-01
            1.051832032911024e-01 4.415436720055108e-02 1.068814178855723e-01 4.173452794240749e-02 1.067803716120173e-01 5.341823137970505e-01 -5.069566241536473e-01 1.216731865563258e-01
            -5.070228858109966e-01 1.217177827638635e-01 1.067722740063020e-01 5.342339617518876e-01 1.022976521077203e-01 4.182269126237073e-02 1.062441945059840e-01 4.706178205713117e-02
            1.067379214394959e-01 5.342250468168818e-01 -5.070068524280380e-01 1.217375275627876e-01 1.063004924202473e-01 4.699931464174486e-02 1.023008482978708e-01 4.177045507822299e-02
171857381.1509591341 1.197947928883000e-01 3.241102657994652e-02 1.175757955844845e-01 3.524827537316602e-02 -4.808652336497083e-01 1.964874798522451e-01 1.885699456682543e-01 5.098756186406698e-01
            1.174421568499703e-01 3.535578498663273e-02 1.198588330529815e-01 3.236877107210175e-02 1.885147564242650e-01 5.098572175097577e-01 -4.808640563729169e-01 1.965820117508978e-01
            -4.808969476441483e-01 1.965816583149569e-01 1.885285833499910e-01 5.098657341684854e-01 1.152425019630947e-01 3.229789268609053e-02 1.193660785366111e-01 3.758699113979306e-02
            1.885723925143028e-01 5.098666752239541e-01 -4.809584447158554e-01 1.966003595443519e-01 1.193454484095199e-01 3.761712166951241e-02 1.152689373257735e-01 3.239819336440738e-02
172356964.1367806494 1.292688357016049e-01 1.973471842107788e-02 1.265142352410294e-01 2.313297780543651e-02 -4.444113833232179e-01 2.667289683829175e-01 2.648108466799597e-01 4.736055270241993e-01
            1.264494070540947e-01 2.304269719000230e-02 1.293173289715074e-01 1.961980594327770e-02 2.647512136715888e-01 4.735775209483217e-01 -4.443726411011829e-01 2.667271749399776e-01
            -4.443882822410289e-01 2.667180018146113e-01 2.647377196836866e-01 4.735669225384961e-01 1.247264154645121e-01 1.966326597141947e-02 1.289360477510049e-01 2.463372817770360e-02
            2.648630934945076e-01 4.735694896151895e-01 -4.444116936868823e-01 2.666697277710416e-01 1.288511708213425e-01 2.469805915316372e-02 1.247703923282187e-01 1.957918836452897e-02
172856547.1226021647 1.343411717236642e-01 4.736968842810488e-03 1.313569669807924e-01 8.885154703519159e-03 -3.981432623853279e-01 3.309042220056123e-01 3.339798913804233e-01 4.264396663476374e-01
            1.314383733856392e-01 8.906469029108936e-03 1.343583831408132e-01 4.700729503996375e-03 3.340030958090515e-01 4.264857448542633e-01 -3.981278255510602e-01 3.309229577576750e-01
            -3.981770383688292e-01 3.309334382664937e-01 3.340538275708265e-01 4.263974930429110e-01 1.298039257816800e-01 4.682253144795269e-03 1.340006613548714e-01 9.566154213264998e-03
            3.340008115415801e-01 4.264352905434332e-01 -3.982107228522914e-01 3.309083073350156e-01 1.340347151590442e-01 9.498064965853035e-03 1.298294412466078e-01 4.612766797330497e-03
173356130.1084236801 1.348892017903993e-01 -1.090225000491185e-02 1.317942131773892e-01 -6.122676484406950e-03 -3.428449384783917e-01 3.878486402312178e-01 3.950235143166836e-01 3.700034889075706e-01
            1.318402577215723e-01 -6.119089456198983e-03 1.347657265155324e-01 -1.084699528914305e-02 3.950699941030600e-01 3.699737370791606e-01 -3.428668546124711e-01 3.878363923415145e-01
            -3.428665431729476e-01 3.878877816962057e-01 3.951060042670489e-01 3.700413005970317e-01 1.301819363553902e-01 -1.121439922279962e-02 1.343410759777298e-01 -6.449888256250896e-03
            3.950378664899301e-01 3.699949808035258e-01 -3.427803844404531e-01 3.878383058555709e-01 1.343900854781083e-01 -6.441488041751486e-03 1.301821974660317e-01 -1.109459186836040e-02
173855713.0942451954 1.305469753229518e-01 -2.589583099925012e-02 1.276349467248177e-01 -2.058224606036747e-02 -2.792740733641941e-01 4.362796270941467e-01 4.467483897092388e-01 3.056042226993613e-01
            1.276218934759552e-01 -2.059307199615991e-02 1.304791925446399e-01 -2.595224029261003e-02 4.468160213218965e-01 3.055495694867421e-01 -2.792319668677931e-01 4.361680094645076e-01
            -2.791816316407301e-01 4.362795029565493e-01 4.468248508179695e-01 3.055256489204976e-01 1.256659195844080e-01 -2.624891174812754e-02 1.297714369169349e-01 -2.183482565313232e-02
            4.467317782007661e-01 3.054577049617332e-01 -2.792286319157802e-01 4.363129545199642e-01 1.299599891685048e-01 -2.183962745090563e-02 1.256829205958314e-01 -2.620499274305033e-02
174355296.0800667107 1.219263911485529e-01 -3.891526257551122e-02 1.192601877527066e-01 -3.308003611735922e-02 -2.085312791585045e-01 4.747660634756802e-01 4.886366939195924e-01 2.343343495297579e-01
            1.192510662365437e-01 -3.302362532349741e-02 1.218433439308472e-01 -3.894075545443231e-02 4.886403161733733e-01 2.343242868208318e-01 -2.084272976336702e-01 4.747874827752474e-01
            -2.083080220787186e-01 4.747732555988267e-01 4.885243310053811e-01 2.343942284240657e-01 1.167757238441055e-01 -3.942217064940684e-02 1.209222473410971e-01 -3.521372618285398e-02
            4.885974096930093e-01 2.343794056213354e-01 -2.083994429911716e-01 4.747230604217257e-01 1.209556829488019e-01 -3.518201503708792e-02 1.168267641799253e-01 -3.943351570215173e-02
174854879.0658882558 1.096834471735673e-01 -4.866232080501862e-02 1.074054393552282e-01 -4.245958141351708e-02 -1.318034316332331e-01 5.020519748303214e-01 5.198249324194737e-01 1.577609387521419e-01
            1.074378946486881e-01 -4.251478410938788e-02 1.095973730418423e-01 -4.876567378663341e-02 5.198564476715344e-01 1.577406781372543e-01 -1.318303610462589e-01 5.020440317274287e-01
            -1.317755944534796e-01 5.020331001388685e-01 5.197696266685307e-01 1.577480871811301e-01 1.042998849560041e-01 -4.929393622680339e-02 1.082112110711129e-01 -4.533490388549965e-02
            5.198488123265379e-01 1.577178237120265e-01 -1.317585534397821e-01 5.020608534470301e-01 1.081986522775021e-01 -4.530049473652897e-02 1.041408595898822e-01 -4.937128255311318e-02
175354462.0517097712 9.497282649725446e-02 -5.432774239928418e-02 9.313737125953256e-02 -4.782997406782498e-02 -5.109564651548169e-02 5.170213349412730e-01 5.396747432670602e-01 7.701335748214647e-02
            9.316184768745474e-02 -4.786490544486412e-02 9.492132266658701e-02 -5.434851842139228e-02 5.396259070204720e-01 7.702535978353282e-02 -5.107629945002771e-02 5.169780432934992e-01
            -5.109634207834864e-02 5.169700036220435e-01 5.396511276842165e-01 7.696979420233935e-02 8.913804013047093e-02 -5.503205081569452e-02 9.292324759857878e-02 -5.113835820193345e-02
            5.396523933132521e-01 7.694716579695150e-02 -5.120653567344766e-02 5.170241067473361e-01 9.295276699569391e-02 -5.116500644351395e-02 8.911236456571096e-02 -5.494782138353962e-02
175854045.0375312865 7.909884160512948e-02 -5.503157045297714e-02 7.782475893468072e-02 -4.856659503346544e-02 3.145129968692006e-02 5.185858490727097e-01 5.475199532118500e-01 -6.640979419745219e-03
            7.783259163763467e-02 -4.855977119964867e-02 7.909507992442526e-02 -5.506875697150873e-02 5.475801816200402e-01 -6.614385012525869e-03 3.150550707020533e-02 5.186167740006216e-01
            3.156820822153494e-02 5.186027195595895e-01 5.475526444765483e-01 -6.536403446418836e-03 7.281321365421864e-02 -5.571223325558133e-02 7.629146437657840e-02 -5.202603591633248e-02
            5.476108241943718e-01 -6.562251297500266e-03 3.150907137237172e-02 5.185538037183609e-01 7.632840714114500e-02 -5.193013656529778e-02 7.288501347446569e-02 -5.572672090281545e-02
176353628.0233528018 6.376580431105162e-02 -5.082686928990129e-02 6.290975746667773e-02 -4.430927341131743e-02 1.135963521984842e-01 5.064855097333173e-01 5.427973750479321e-01 -9.137358581486092e-02
            6.287857578338547e-02 -4.444571812773791e-02 6.375838524368493e-02 -5.088352595677397e-02 5.428233988332354e-01 -9.131328651795904e-02 1.136105230086856e-01 5.065450226720692e-01
            1.136787219880112e-01 5.064766156832863e-01 5.428443682740001e-01 -9.128485973654500e-02 5.688859995512078e-02 -5.119746558858036e-02 6.010776258909789e-02 -4.750848475089165e-02
            5.428234162950614e-01 -9.128368462252356e-02 1.136829552208453e-01 5.065601746662179e-01 6.017832565121935e-02 -4.759912093976947e-02 5.695334275138407e-02 -5.121411884073514e-02
176853211.0091743171 5.053998639670342e-02 -4.170075182481613e-02 4.989726534118202e-02 -3.572385568511645e-02 1.927960574033878e-01 4.808416800225480e-01 5.250485716883215e-01 -1.754099608271191e-01
            5.003072273387225e-02 -3.564050904833077e-02 5.045320294597912e-02 -4.167634586830354e-02 5.250864035975399e-01 -1.753604013929531e-01 1.928312348182220e-01 4.808644007364899e-01
            1.927849373552748e-01 4.808085344203877e-01 5.250597442444237e-01 -1.754531434890741e-01 4.308468120586448e-02 -4.187135127271884e-02 4.601534837828422e-02 -3.820438666726420e-02
            5.250473948386061e-01 -1.754661816873249e-01 1.927148289808251e-01 4.807982546606872e-01 4.601947580151385e-02 -3.817415873632115e-02 4.315788293745263e-02 -4.186388991879324e-02
177352793.9949958324 4.079648575265960e-02 -2.883316983715407e-02 4.053512862356370e-02 -2.310023333525732e-02 2.663129598705348e-01 4.421841787788718e-01 4.938680980319647e-01 -2.568432275411657e-01
            4.048979224436405e-02 -2.313267872438967e-02 4.074894763469034e-02 -2.880468803575197e-02 4.938757764239079e-01 -2.568853538934124e-01 2.662846187726933e-01 4.422770311437497e-01
            2.662272943812671e-01 4.422135197839813e-01 4.938550101623172e-01 -2.568613885449797e-01 3.290967341162432e-02 -2.854327405110118e-02 3.545492132779381e-02 -2.469777895048115e-02
            4.938961260977081e-01 -2.568724686917550e-01 2.662794736463245e-01 4.422188135789680e-01 3.546905620497010e-02 -2.462088282162152e-02 3.290324346389943e-02 -2.850939962705810e-02
177852376.9808173478 3.581353436423380e-02 -1.335763685823930e-02 3.554004999375375e-02 -8.175577322014413e-03 3.318411183640296e-01 3.921705418005028e-01 4.494791893164471e-01 -3.332570296734023e-01
            3.556215816381984e-02 -8.141944980075684e-03 3.580644347860183e-02 -1.337781420799245e-02 4.494918318314328e-01 -3.332233889161668e-01 3.318174532976155e-01 3.921504220447400e-01
            3.318957808373868e-01 3.921750525987686e-01 4.494595950093648e-01 -3.332628556368034e-01 2.740479876229172e-02 -1.262817185819886e-02 2.983727023652800e-02 -8.399964051309538e-03
            4.495034517271034e-01 -3.332293401995129e-01 3.317634276824004e-01 3.922039524942049e-01 2.978516258629987e-02 -8.360451952538104e-03 2.744240615125825e-02 -1.259762821937120e-02
178351959.9666388631 3.612821445599627e-02 2.966362190278121e-03 3.564317452919485e-02 7.668733895649477e-03 3.875695701988269e-01 3.324718670510531e-01 3.925398034565766e-01 -4.019585548912025e-01
            3.573454524018867e-02 7.492876767883344e-03 3.614111807181714e-02 2.989689309972066e-03 3.925849734208657e-01 -4.020338255361769e-01 3.875962085332838e-01 3.325030371723369e-01
            3.875653709331573e-01 3.324244701785919e-01 3.926132133109918e-01 -4.020070966180020e-01 2.727420492614887e-02 4.300947403739021e-03 2.959905482391494e-02 8.859962834146175e-03
            3.925945230458516e-01 -4.020564800890805e-01 3.876097603091919e-01 3.324188421870239e-01 2.957722840056378e-02 8.808076246339067e-03 2.736737792506912e-02 4.306173012829912e-03
178851542.9524603784 4.173156486125092e-02 1.822208550591407e-02 4.093593118526481e-02 2.237969292118090e-02 4.322631537738009e-01 2.653384187478886e-01 3.245433052312259e-01 -4.609062463710618e-01
            4.096601299596101e-02 2.241787973040353e-02 4.159905673157217e-02 1.826253873516583e-02 3.244900772784000e-01 -4.608277305613413e-01 4.322248877842378e-01 2.654020072056414e-01
            4.322074527756895e-01 2.653592359043423e-01 3.245789794897685e-01 -4.608448330739437e-01 3.265315120640346e-02 2.022247763213022e-02 3.493111466693273e-02 2.530909699583163e-02
            3.245747941020893e-01 -4.608367247386608e-01 4.322422163825418e-01 2.653480432793646e-01 3.486361501594627e-02 2.533357432591223e-02 3.266590580005824e-02 2.033544943411542e-02
179351125.9382818937 5.188021018845563e-02 3.085022567458775e-02 5.063039898504198e-02 3.458002600566176e-02 4.650354363399638e-01 1.931341280181963e-01 2.473622388369794e-01 -5.077662052813647e-01
            5.068711992424917e-02 3.459836866254766e-02 5.197125053823635e-02 3.085193610202564e-02 2.473764011966214e-01 -5.077663541955860e-01 4.650082782958522e-01 1.930220787010505e-01
            4.650146833849576e-01 1.930756695433140e-01 2.473782664289822e-01 -5.076802957077109e-01 4.278670037321435e-02 3.363710093568371e-02 4.512223406220521e-02 3.910125237584071e-02
            2.473377869396833e-01 -5.077316055001979e-01 4.649812259538954e-01 1.931106494571991e-01 4.509942361160690e-02 3.903045543812886e-02 4.282776296934850e-02 3.352600860983000e-02
179850708.9241034091 6.557345012905397e-02 3.946271128152980e-02 6.356377448963457e-02 4.303003847056171e-02 4.858352640697294e-01 1.179470954613085e-01 1.633861650120720e-01 -5.410248249111944e-01
            6.369169286520406e-02 4.291131971447113e-02 6.562230915847517e-02 3.945403238325911e-02 1.633402202944145e-01 -5.410149309592311e-01 4.857578652994172e-01 1.177574719986608e-01
            4.858190723904564e-01 1.178320623291731e-01 1.634070122549284e-01 -5.410452273513623e-01 5.649927031605065e-02 4.293120723013875e-02 5.896181655365237e-02 4.883259988621104e-02
            1.633019768969649e-01 -5.410256413794711e-01 4.857195982735870e-01 1.178228348138161e-01 5.901784360010530e-02 4.889135521609517e-02 5.652102685129208e-02 4.291020816614061e-02
180350291.9099249542 8.114194796277999e-02 4.319883067150031e-02 7.847436022537685e-02 4.665498566720647e-02 4.948622879885490e-01 4.140487583146785e-02 7.523730986254992e-02 -5.598368730959588e-01
            7.855790990552416e-02 4.669383791432016e-02 8.127419065592452e-02 4.330180767999631e-02 7.535633507429239e-02 -5.598528277155344e-01 4.948259542472903e-01 4.140254203617442e-02
            4.948263369498373e-01 4.142440909380889e-02 7.534766511011323e-02 -5.598992593863219e-01 7.230733881854184e-02 4.741142753129199e-02 7.510437735334057e-02 5.374936960144248e-02
            7.525215290751701e-02 -5.598146625874961e-01 4.947274993314041e-01 4.149127490173730e-02 7.515743964446690e-02 5.375091038577936e-02 7.228246894434813e-02 4.745861981903680e-02
180849874.8957464695 9.713476820497567e-02 4.198261486325932e-02 9.361757570238399e-02 4.557240648506239e-02 4.924249571670833e-01 -3.446709933535552e-02 -1.403479814845664e-02 -5.639967996295647e-01
            9.362993368888833e-02 4.557077449547330e-02 9.718020466763413e-02 4.208747824438441e-02 -1.410763109627824e-02 -5.639603826728680e-01 4.924013304742157e-01 -3.445583209637921e-02
            4.924518200571800e-01 -3.438129414423487e-02 -1.407457114927517e-02 -5.639772696976999e-01 8.843118400974793e-02 4.675567217615607e-02 9.180508571652163e-02 5.342448303050296e-02
            -1.404329516428630e-02 -5.638777219042334e-01 4.924089864852126e-01 -3.437746314115936e-02 9.184656375748081e-02 5.341336010365054e-02 8.831049876552169e-02 4.674109043714021e-02
181349457.8815679848 1.118697868668946e-01 3.593109993965179e-02 1.074207304061997e-01 3.985181078607962e-02 4.792236998160658e-01 -1.083760561358115e-01 -1.022372886001663e-01 -5.537793246705360e-01
            1.074315069020877e-01 3.979618803116539e-02 1.119011197208096e-01 3.589327227082900e-02 -1.022112281368222e-01 -5.537961640015726e-01 4.792460749450391e-01 -1.083608333732356e-01
            4.792260691025486e-01 -1.083481936479359e-01 -1.022850938927392e-01 -5.537560753473988e-01 1.033815046921854e-01 4.115502363507471e-02 1.073912147921275e-01 4.808828145839608e-02
            -1.022832970325912e-01 -5.536968648849407e-01 4.791909664612343e-01 -1.083992023174997e-01 1.073770012558439e-01 4.802037117008343e-02 1.033720732081214e-01 4.111581865107999e-02
181849040.8673895001 1.239340806816003e-01 2.564492314985751e-02 1.187664088048856e-01 3.015712955271285e-02 4.555286489268475e-01 -1.791645081318596e-01 -1.869873303720954e-01 -5.299227968262833e-01
            1.188033583959541e-01 3.022931892603755e-02 1.239350290567273e-01 2.571211721677187e-02 -1.869965986013055e-01 -5.299509243109803e-01 4.555618110725485e-01 -1.791569791387797e-01
            4.556141817089569e-01 -1.791668681386227e-01 -1.870071152404914e-01 -5.299297987086833e-01 1.156347357102881e-01 3.142307993701234e-02 1.206204617906515e-01 3.834658199791378e-02
            -1.869610421761665e-01 -5.300138225030149e-01 4.556273685720152e-01 -1.791408750577829e-01 1.205531672395854e-01 3.833026968912578e-02 1.157366234486230e-01 3.136713557339139e-02
182348623.8532110155 1.323454210206903e-01 1.233079105792038e-02 1.265389468606646e-01 1.761005499676354e-02 4.222097596032273e-01 -2.456680311049810e-01 -2.662328173851673e-01 -4.936667727042346e-01
            1.265807989856419e-01 1.761136272776419e-02 1.323123349579665e-01 1.230607263075257e-02 -2.662641180063439e-01 -4.936895833006478e-01 4.222795343173208e-01 -2.457179477886053e-01
            4.222278520892825e-01 -2.457381658879894e-01 -2.661971866410503e-01 -4.936465414081813e-01 1.244912308817505e-01 1.847218893828818e-02 1.301004589460973e-01 2.524022918061324e-02
            -2.661844222136220e-01 -4.936901888282559e-01 4.222235249738378e-01 -2.457323233810770e-01 1.301040860061024e-01 2.520041410865584e-02 1.244705453580918e-01 1.848358230503984e-02
182848206.8390325308 1.363536928149200e-01 -2.889559942839468e-03 1.301229560801622e-01 3.298678227049448e-03 3.795240471447358e-01 -3.067755502540129e-01 -3.384666308322560e-01 -4.462047045719575e-01
            1.301363180712031e-01 3.230530668442044e-03 1.363189602126708e-01 -2.882041546029208e-03 -3.384340007117034e-01 -4.462172783832455e-01 3.795125772649273e-01 -3.068065168831000e-01
            3.795699693800440e-01 -3.068421107253323e-01 -3.384514680663459e-01 -4.463479284231269e-01 1.287970266867164e-01 3.588418908539643e-03 1.352418876950270e-01 1.002791065338494e-02
            -3.384989119708860e-01 -4.462277370760324e-01 3.796485205533884e-01 -3.067565010964440e-01 1.351975706463151e-01 9.928287850493704e-03 1.288168970126121e-01 3.676939004066403e-03
183347789.8248540461 1.357319095545270e-01 -1.858789829262092e-02 1.292004074613247e-01 -1.146480499720055e-02 3.280737973575753e-01 -3.612980160817717e-01 -4.024491250381878e-01 -3.888527554108786e-01
            1.292666101059818e-01 -1.147341567314334e-02 1.356320854006385e-01 -1.861598080043824e-02 -4.023444733383426e-01 -3.889200618152242e-01 3.281340452092589e-01 -3.612759507642765e-01
            3.281048002692054e-01 -3.613840142962298e-01 -4.023663309696554e-01 -3.888669491382169e-01 1.285301542815046e-01 -1.181056619295506e-02 1.355918402019942e-01 -6.065806986832609e-03
            -4.024606061922272e-01 -3.888941876184702e-01 3.280531283504027e-01 -3.612184151529638e-01 1.356121817209005e-01 -6.051250255905262e-03 1.284503042275679e-01 -1.177685895345923e-02
183847372.8106755614 1.303161922665713e-01 -3.347777392316950e-02 1.238429577118603e-01 -2.530459813699899e-02 2.687073912665208e-01 -4.078384493623843e-01 -4.571102690972352e-01 -3.230887915103161e-01
            1.238952017027129e-01 -2.527177116077534e-02 1.304756053702608e-01 -3.354299670085350e-02 -4.570556522645739e-01 -3.230806346238015e-01 2.687776693034295e-01 -4.078364683619792e-01
            2.687144297146753e-01 -4.078012091061312e-01 -4.571004802068817e-01 -3.230877554273402e-01 1.235833786630447e-01 -2.647795463515885e-02 1.311741933943822e-01 -2.151229103589701e-02
            -4.570405716475469e-01 -3.229890852400093e-01 2.687344291196311e-01 -4.078435127460877e-01 1.312065555316755e-01 -2.147522903277676e-02 1.235891405529007e-01 -2.640906719874540e-02
184346955.7964970767 1.208399438085347e-01 -4.619525570181638e-02 1.145809370036968e-01 -3.701130105469456e-02 2.022896231849210e-01 -4.450818158890167e-01 -5.015572430506349e-01 -2.501166486953095e-01
            1.146945264081952e-01 -3.697949662476090e-02 1.209055790843604e-01 -4.614225187486141e-02 -5.015674868512797e-01 -2.501376279385797e-01 2.023249168208031e-01 -4.451322009132808e-01
            2.023374275897975e-01 -4.451324174632134e-01 -5.015280742070570e-01 -2.501396446372782e-01 1.144509542372486e-01 -3.883396398201198e-02 1.224045001190777e-01 -3.487480268745626e-02
            -5.015214006855407e-01 -2.501161045314234e-01 2.023430430114859e-01 -4.450763788126271e-01 1.224344651779267e-01 -3.489833710743655e-02 1.144558417721482e-01 -3.889399092945604e-02
184846538.7823185921 1.079624370033650e-01 -5.548291416681269e-02 1.020628590203035e-01 -4.543285423600731e-02 1.302384326965066e-01 -4.717989133540906e-01 -5.350596427313499e-01 -1.713634972721547e-01
            1.020899099812845e-01 -4.540051363616102e-02 1.079324537081476e-01 -5.541550213716053e-02 -5.350761070325517e-01 -1.713483305234976e-01 1.302436648677541e-01 -4.717363110079441e-01
            1.302782324369026e-01 -4.717622649852001e-01 -5.349822938091645e-01 -1.713882749277901e-01 1.019851573126405e-01 -4.791585737866925e-02 1.098546297364722e-01 -4.507908517364987e-02
            -5.350500954975135e-01 -1.713589512902839e-01 1.302957786849399e-01 -4.717762229121105e-01 1.099005572656237e-01 -4.508227345657343e-02 1.019287837544552e-01 -4.808223045896835e-02
185346121.7681401074 9.271871290438090e-02 -6.049602482698044e-02 8.745286872971376e-02 -4.963494107238462e-02 5.422337958684072e-02 -4.867892734100717e-01 -5.568784483160033e-01 -8.796674971901124e-02
            8.746727391534366e-02 -4.961759410696822e-02 9.279637883611914e-02 -6.050659693642735e-02 -5.568253554505579e-01 -8.803685637240215e-02 5.418397213524893e-02 -4.867765995769602e-01
            5.423944291057388e-02 -4.867567650607219e-01 -5.568136087039436e-01 -8.801745355102882e-02 8.713855923250532e-02 -5.291887158069602e-02 9.491520802625895e-02 -5.108881923026758e-02
            -5.568072432518343e-01 -8.795387166911883e-02 5.422189787759799e-02 -4.867577424765556e-01 9.488830184202629e-02 -5.109766013352602e-02 8.712240636660616e-02 -5.284167284610416e-02
185845704.7539616525 7.667430213278124e-02 -6.061670273309473e-02 7.205223836918029e-02 -4.912912094260803e-02 -2.381928876350571e-02 -4.891162267479559e-01 -5.662022511898887e-01 -1.645615941226186e-03
            7.202208507432115e-02 -4.916359333511415e-02 7.666403989817951e-02 -6.062272483788757e-02 -5.661472045281146e-01 -1.637289939202758e-03 -2.377026852457746e-02 -4.891818014488479e-01
            -2.376689490878010e-02 -4.891702103969578e-01 -5.662386855894666e-01 -1.621745940289020e-03 7.129287751922149e-02 -5.297113144934951e-02 7.857924142587917e-02 -5.216091058821765e-02
            -5.662272347789834e-01 -1.662781286279919e-03 -2.378806073392345e-02 -4.890917850441573e-01 7.855597590315289e-02 -5.214684007662022e-02 7.132466794496695e-02 -5.297525197152050e-02
186345287.7397831678 6.126283369280188e-02 -5.581487664308136e-02 5.733618237011974e-02 -4.394352081018432e-02 -1.014527508362633e-01 -4.784680034015830e-01 -5.624660133409032e-01 8.629496427560947e-02
            5.741585603877425e-02 -4.394786621690981e-02 6.127590448760306e-02 -5.573623128123183e-02 -5.624110805597076e-01 8.622927943169985e-02 -1.014919783452138e-01 -4.785417088053311e-01
            -1.013874056965577e-01 -4.784924546783477e-01 -5.624774762067264e-01 8.620717781591306e-02 5.630669581336527e-02 -4.806925269755739e-02 6.284613641194718e-02 -4.812760316825351e-02
            -5.624331359287971e-01 8.624800278173780e-02 -1.014211482190186e-01 -4.785479197184007e-01 6.283095236501789e-02 -4.810958539784396e-02 5.624926720969807e-02 -4.811112153147033e-02
186844870.7256046832 4.815794546519005e-02 -4.638870150800321e-02 4.497145840917569e-02 -3.423903504885015e-02 -1.762678094696994e-01 -4.549695659018056e-01 -5.451089200862071e-01 1.734209051134188e-01
            4.496940810855529e-02 -3.421680101718509e-02 4.813164046126410e-02 -4.635812191715759e-02 -5.450859582304068e-01 1.734068559493797e-01 -1.762697031227603e-01 -4.549031260919543e-01
            -1.763370372758630e-01 -4.549417843593219e-01 -5.450484713176307e-01 1.734655478096896e-01 4.342292781627800e-02 -3.862159383616379e-02 4.892304270920687e-02 -3.946528931136039e-02
            -5.451098987306312e-01 1.734687564966710e-01 -1.762963716190687e-01 -4.549404371278574e-01 4.888824098391123e-02 -3.943491889336020e-02 4.348185458078283e-02 -3.864216856120758e-02
187344453.7114261985 3.860871595474551e-02 -3.324857137678346e-02 3.612575611778677e-02 -2.112075860616916e-02 -2.458938234903814e-01 -4.192490085504937e-01 -5.138699357164395e-01 2.580073523982443e-01
            3.611502727120098e-02 -2.109018318869333e-02 3.864913111601666e-02 -3.321149949847305e-02 -5.138110233806302e-01 2.580521169678708e-01 -2.458575141628389e-01 -4.192540573929457e-01
            -2.458695644438300e-01 -4.192098735256471e-01 -5.138563920052852e-01 2.579709069238912e-01 3.422195299056745e-02 -2.548149637970318e-02 3.857350993440691e-02 -2.674608421468694e-02
            -5.139080784155640e-01 2.580519773611042e-01 -2.458811143393027e-01 -4.192356158134266e-01 3.855965379165608e-02 -2.669326540519918e-02 3.430851144039719e-02 -2.553478353521325e-02
187844036.6972477138 3.392485134885229e-02 -1.787214818458465e-02 3.199652026229955e-02 -5.815272320967631e-03 -3.079919275755192e-01 -3.726600729776647e-01 -4.689617216847444e-01 3.372770053091393e-01
            3.194292577756338e-02 -5.809394001706178e-03 3.388494814319308e-02 -1.791197780087313e-02 -4.689795681326953e-01 3.372906395457566e-01 -3.080965538338136e-01 -3.726764826241334e-01
            -3.080207667338975e-01 -3.726318906955545e-01 -4.689168540831894e-01 3.372738326174608e-01 2.984828588019191e-02 -1.010040551934649e-02 3.277563561327673e-02 -1.133063187497249e-02
            -4.688442214985536e-01 3.372607135185606e-01 -3.080339729110324e-01 -3.726728031244781e-01 3.277202124848541e-02 -1.142508702522585e-02 2.983607411906307e-02 -1.007267519871511e-02
188343619.6830692291 3.427968613995995e-02 -1.875430562635718e-03 3.289159723342729e-02 1.001409665822265e-02 -3.610741890691406e-01 -3.169370440316087e-01 -4.111045680764986e-01 4.089716327890398e-01
            3.284400092876688e-02 9.966778487376775e-03 3.425971700081910e-02 -1.952748654423799e-03 -4.109912434714226e-01 4.089645326764860e-01 -3.609716345766837e-01 -3.170174832475899e-01
            -3.610179164079385e-01 -3.169927445497320e-01 -4.111087056377237e-01 4.088849811751364e-01 3.060621514348255e-02 5.899568646463518e-03 3.217922061915625e-02 4.789111837608444e-03
            -4.110924710126386e-01 4.088198904773939e-01 -3.610752954916155e-01 -3.169924597748233e-01 3.218631124630918e-02 4.842170654441522e-03 3.056954016832995e-02 5.867745575394241e-03
188843202.6688907444 3.985455893922240e-02 1.294024140816732e-02 3.864182689605955e-02 2.460536714636882e-02 -4.037165393815637e-01 -2.543305413510829e-01 -3.417901067343819e-01 4.703450903424293e-01
            3.862422543974255e-02 2.458403456655549e-02 3.992052299460278e-02 1.289709177359585e-02 -3.417710848173057e-01 4.703198241723103e-01 -4.036496092352310e-01 -2.543091994430180e-01
            -4.036565228232927e-01 -2.542984961779839e-01 -3.417764751704363e-01 4.703617603379774e-01 3.649559938848811e-02 2.071112610234535e-02 3.676623857434005e-02 2.015653441645416e-02
            -3.418587757677202e-01 4.702668797907379e-01 -4.036642340848376e-01 -2.542850362141503e-01 3.674620557115885e-02 2.024754498021653e-02 3.648060320233101e-02 2.069411671998938e-02
189342785.6547122598 4.974563641475176e-02 2.496436084025049e-02 4.864966938646474e-02 3.650186548053184e-02 -4.352181304757911e-01 -1.866606230914448e-01 -2.630163684526208e-01 5.195510428701208e-01
            4.868761581333434e-02 3.653410355174559e-02 4.979226520124783e-02 2.505400066359682e-02 -2.629986156952070e-01 5.196049563276224e-01 -4.352140638606647e-01 -1.866499758342064e-01
            -4.352418195153928e-01 -1.866205349669245e-01 -2.630068963264915e-01 5.195916693735592e-01 4.682490359203597e-02 3.270753101059556e-02 4.592544161113084e-02 3.320971104455864e-02
            -2.629751421649996e-01 5.195502039012088e-01 -4.352159690499794e-01 -1.866551901955011e-01 4.597235610922269e-02 3.327866940188115e-02 4.676195121840178e-02 3.269680641335505e-02
189842368.6405337751 6.291134814646425e-02 3.304819059180962e-02 6.182218626760102e-02 4.448957678223635e-02 -4.555771535636731e-01 -1.161093797124860e-01 -1.771657134512939e-01 5.550473157435878e-01
            6.180256973428771e-02 4.450810140017528e-02 6.289557128229530e-02 3.303827753685445e-02 -1.771353193165862e-01 5.550156558357513e-01 -4.555335211113756e-01 -1.161262472265533e-01
            -4.555564524363019e-01 -1.161478605210521e-01 -1.771388763803231e-01 5.551082860466418e-01 6.031816308739768e-02 4.056939480397839e-02 5.864426256088839e-02 4.234997277885808e-02
            -1.772334238088030e-01 5.550669208521271e-01 -4.555410478517355e-01 -1.161105615864726e-01 5.853153337973264e-02 4.232441567231791e-02 6.030286031413714e-02 4.061131636360513e-02
190341951.6263552904 7.763439038206403e-02 3.648888883088493e-02 7.649931025939591e-02 4.795207350567601e-02 -4.648488356208845e-01 -4.438825564649446e-02 -8.695129842851720e-02 5.758689828541428e-01
            7.645228885657698e-02 4.800045937626240e-02 7.777903357649532e-02 3.653738739333985e-02 -8.698153068914813e-02 5.758990337793950e-01 -4.648466538762592e-01 -4.438518495758759e-02
            -4.648153405296153e-01 -4.432921440664806e-02 -8.703712049607321e-02 5.759035248055024e-01 7.543849188552518e-02 4.369426897641358e-02 7.315027827804171e-02 4.697623934454637e-02
            -8.699290985629651e-02 5.759334958121709e-01 -4.648252293360289e-01 -4.433619825772817e-02 7.303845608438247e-02 4.698842776640882e-02 7.542466946568048e-02 4.374502882371038e-02
190841534.6121768057 9.255898505271044e-02 3.491150870841660e-02 9.132922728094514e-02 4.666103658075446e-02 -4.634342546958419e-01 2.702533267315417e-02 4.911328576591008e-03 5.816884825554540e-01
            9.125292483502997e-02 4.668736990640113e-02 9.266550205563487e-02 3.497843404965063e-02 4.839131987744801e-03 5.816638249371315e-01 -4.634471627388092e-01 2.698062417065925e-02
            -4.634347048579180e-01 2.701632710121486e-02 4.863342313466171e-03 5.816963841998043e-01 9.062458239431906e-02 4.187052070971206e-02 8.814655013097285e-02 4.677436684026045e-02
            4.822182294428564e-03 5.817609124248836e-01 -4.634567352197103e-01 2.702159038044141e-02 8.813544210896555e-02 4.676842855255393e-02 9.068698987834946e-02 4.184520462104577e-02
191341117.5979983211 1.061272836796589e-01 2.891197852676948e-02 1.046923425137147e-01 4.092957204840937e-02 -4.517454387065334e-01 9.680873473594663e-02 9.584832813845963e-02 5.728378330899896e-01
            1.046244139042750e-01 4.092293485575829e-02 1.061259842443561e-01 2.890009079127560e-02 9.576833804294151e-02 5.728864228121485e-01 -4.518059544133035e-01 9.680331573758219e-02
            -4.517642758640237e-01 9.677512086087543e-02 9.581003233597775e-02 5.728557976996081e-01 1.044342699742509e-01 3.526751141643104e-02 1.020949718488490e-01 4.190800492075540e-02
            9.583055711647555e-02 5.727928079303863e-01 -4.517922028699762e-01 9.684611125445826e-02 1.021331298594604e-01 4.191467677616589e-02 1.044402797080125e-01 3.526337119561955e-02
191840700.5838198662 1.169590844746494e-01 1.895021424539626e-02 1.155065836747581e-01 3.153510912152963e-02 -4.303676406417468e-01 1.637796382145304e-01 1.834890428569138e-01 5.500648025855343e-01
            1.154840372262675e-01 3.146738391654316e-02 1.169475058920735e-01 1.901665586345703e-02 1.835276226049245e-01 5.500536884712305e-01 -4.302451354966816e-01 1.637126351688831e-01
            -4.302892145846868e-01 1.637538938989499e-01 1.834742000860055e-01 5.500281673139782e-01 1.153330471440367e-01 2.483782184933645e-02 1.136481134487021e-01 3.308059409432175e-02
            1.834554344297240e-01 5.500191207823100e-01 -4.303740845729488e-01 1.637280806923250e-01 1.136687519531619e-01 3.307359884826046e-02 1.153906560242596e-01 2.480828411861902e-02
192340283.5696413815 1.240051477620010e-01 6.197453205922791e-03 1.226698548666524e-01 1.939025147781283e-02 -3.995750181443647e-01 2.269510782899046e-01 2.659819891789574e-01 5.142924458992051e-01
            1.227051624134982e-01 1.946719553385248e-02 1.241067234401109e-01 6.251570074161846e-03 2.659554264956056e-01 5.143164946082255e-01 -3.995140443242497e-01 2.268755157917156e-01
            -3.995070901967749e-01 2.268940890458207e-01 2.659546613046569e-01 5.143801534455544e-01 1.225061859650779e-01 1.146216472794442e-02 1.216981853179543e-01 2.121991781250981e-02
            2.659962119931231e-01 5.143033986053206e-01 -3.995871677973429e-01 2.267171343556801e-01 1.217542508778309e-01 2.125664882964872e-02 1.224806872927730e-01 1.156364981589160e-02
192839866.5554628968 1.268948905549887e-01 -8.150694319678211e-03 1.257907061719624e-01 5.911177470689699e-03 -3.598031940676099e-01 2.848668995152167e-01 3.414793831587866e-01 4.668512473143001e-01
            1.258346111615763e-01 5.840842816333415e-03 1.268699623190594e-01 -8.097112399724353e-03 3.416234323552104e-01 4.667920179314991e-01 -3.598177345887099e-01 2.848941564571136e-01
            -3.598351667954344e-01 2.849222331113206e-01 3.415362690677531e-01 4.667876752560720e-01 1.250898195045694e-01 -3.367690456564841e-03 1.257905423460536e-01 7.686459519083127e-03
            3.415719221954018e-01 4.667641305821417e-01 -3.597433665945691e-01 2.849107347948993e-01 1.257403574822946e-01 7.649197173958237e-03 1.251454458099327e-01 -3.385321328212854e-03
193339449.5412844121 1.251020585398736e-01 -2.251770323657678e-02 1.246789779158867e-01 -7.879712337559555e-03 -3.116503770166266e-01 3.367911910133408e-01 4.089792608451600e-01 4.088722288367703e-01
            1.247239252256536e-01 -7.832038896915281e-03 1.251348718294498e-01 -2.261917194233538e-02 4.089692530194965e-01 4.088655341017797e-01 -3.116347656431128e-01 3.368314260864834e-01
            -3.117479690621826e-01 3.367830189432814e-01 4.089105497730639e-01 4.088406248511861e-01 1.230790233607400e-01 -1.847959551430690e-02 1.254015831421999e-01 -6.493270130166595e-03
            4.089447435362219e-01 4.088483206771805e-01 -3.117015458922954e-01 3.367756739045178e-01 1.253662250073524e-01 -6.559063754654485e-03 1.230964097900511e-01 -1.841384487970005e-02
193839032.5271059275 1.189877621074223e-01 -3.597858794611073e-02 1.193805599299480e-01 -2.042143471601771e-02 -2.558975302628017e-01 3.810744091236923e-01 4.669208880063561e-01 3.418732031803098e-01
            1.194216176410330e-01 -2.042517989985643e-02 1.190527273864297e-01 -3.597792571231277e-02 4.669309258704351e-01 3.417556993613896e-01 -2.558559066066391e-01 3.810634136240781e-01
            -2.559674378234280e-01 3.810043459070905e-01 4.669122620749158e-01 3.418256875769577e-01 1.164769290171756e-01 -3.223662270176705e-02 1.206111817702782e-01 -1.974921317667341e-02
            4.669041210322182e-01 3.418430564034374e-01 -2.559001070806278e-01 3.810441514562485e-01 1.206069130881083e-01 -1.980649279845617e-02 1.165489059654538e-01 -3.229258422556117e-02
194338615.5129274428 1.090602562017571e-01 -4.681749773258138e-02 1.104219857548178e-01 -3.080714842565008e-02 -1.934088568141658e-01 4.166074756701559e-01 5.144987411626635e-01 2.670298098189552e-01
            1.104501202953968e-01 -3.077410501986746e-02 1.089753840733916e-01 -4.687643188012709e-02 5.144860594836712e-01 2.670439433822481e-01 -1.934429394727387e-01 4.165439869519576e-01
            -1.934700142268694e-01 4.165612053413313e-01 5.145004188063774e-01 2.670259905433494e-01 1.058342200586639e-01 -4.353697020381874e-02 1.119411324971012e-01 -3.101947429496414e-02
            5.144152459975468e-01 2.670563338158591e-01 -1.934797402959260e-01 4.165040164418563e-01 1.117754153696452e-01 -3.093885564665878e-02 1.058108712192163e-01 -4.354982390185986e-02
194838198.4987489581 9.588321617828505e-02 -5.423630128974838e-02 9.871253748659994e-02 -3.783608336909914e-02 -1.255620118086734e-01 4.419970153333986e-01 5.506862203453319e-01 1.857511599037511e-01
            9.872507568377863e-02 -3.777896200165273e-02 9.590026204941808e-02 -5.429087099546767e-02 5.506337738423021e-01 1.857173352651818e-01 -1.255478840205809e-01 4.418557911797833e-01
            -1.255628489590931e-01 4.419579174076859e-01 5.507106707816678e-01 1.856447988044384e-01 9.202801850927904e-02 -5.120321243423958e-02 1.000463316657466e-01 -3.889270977145035e-02
            5.507059934094022e-01 1.856495896595768e-01 -1.254989830818000e-01 4.419263506808230e-01 9.990212232134783e-02 -3.898573907940375e-02 9.199339083128787e-02 -5.123909366751560e-02
195337781.4845704734 8.108240446048917e-02 -5.727966374042941e-02 8.530228441417258e-02 -4.067662412393977e-02 -5.401390282164086e-02 4.561771726627716e-01 5.746561344661639e-01 9.941966626747756e-02
            8.524727064279024e-02 -4.076959759802571e-02 8.111336027565672e-02 -5.723605579203368e-02 5.747078141228357e-01 9.944577861082408e-02 -5.401325586031103e-02 4.561723835965170e-01
            -5.401034050987109e-02 4.561205602202421e-01 5.747299121696777e-01 9.944932784016426e-02 7.629185201748057e-02 -5.429839389977972e-02 8.601831014245308e-02 -4.276086174900475e-02
            5.746587599235543e-01 9.942825236897990e-02 -5.406719256542704e-02 4.561498684970134e-01 8.609773425706625e-02 -4.280209553319207e-02 7.635873740787720e-02 -5.431496023262193e-02
195837364.4703919888 6.581071269947161e-02 -5.546916497053457e-02 7.153881242747633e-02 -3.925014573469399e-02 1.926304602749179e-02 4.583441050013733e-01 5.855771955842056e-01 9.644527297830512e-03
            7.146586869048127e-02 -3.923836207934989e-02 6.572156328738435e-02 -5.544283623734873e-02 5.855205762615282e-01 9.642587860124422e-03 1.923111742545291e-02 4.583996138010388e-01
            1.928598662780310e-02 4.583942182231799e-01 5.855150622875036e-01 9.666076101695738e-03 6.018940073128882e-02 -5.244522937665584e-02 7.143785247935269e-02 -4.195402778662825e-02
            5.854949273091210e-01 9.634740344566540e-03 1.918825700004628e-02 4.584329091731708e-01 7.151466324675416e-02 -4.194872032848931e-02 6.017482202446316e-02 -5.244666728030915e-02
196336947.4562135041 5.170025657079309e-02 -4.883474967068305e-02 5.895664909629022e-02 -3.327642085766107e-02 9.206106042665746e-02 4.483351479862243e-01 5.826800030854675e-01 -8.169554638014401e-02
            5.892950857509872e-02 -3.330214573950657e-02 5.166653083282506e-02 -4.889225939128132e-02 5.826271532969904e-01 -8.169477652536690e-02 9.206447625704885e-02 4.483838585735305e-01
            9.207757942720689e-02 4.483347938552064e-01 5.826058130210193e-01 -8.174229280028480e-02 4.512005863829343e-02 -4.564284354988571e-02 5.772885696439539e-02 -3.648704519847155e-02
            5.826288738100960e-01 -8.168721025208175e-02 9.213794856488609e-02 4.483851316957471e-01 5.763335534518092e-02 -3.643767502106337e-02 4.511764805199979e-02 -4.556913361973097e-02
196836530.4420350194 4.024596228250825e-02 -3.804815447848872e-02 4.891202313904009e-02 -2.354845843433732e-02 1.620789917872398e-01 4.262688778693819e-01 5.652755104219426e-01 -1.725055776866636e-01
            4.892782382807236e-02 -2.345661835871882e-02 4.027063104211077e-02 -3.804189764744217e-02 5.653432518404033e-01 -1.724335512775587e-01 1.620471821353184e-01 4.263193610314332e-01
            1.620844956453804e-01 4.262543064816275e-01 5.653787612411301e-01 -1.724378878295598e-01 3.288760541353915e-02 -3.421967678807530e-02 4.629605029233266e-02 -2.668322672122570e-02
            5.653196048043050e-01 -1.723759586977955e-01 1.621290998071043e-01 4.262048833166071e-01 4.624899181166247e-02 -2.668821525201457e-02 3.281863726414828e-02 -3.432575023819128e-02
197336113.4278565645 3.286628288014149e-02 -2.398199515641209e-02 4.273786187973288e-02 -1.081922165399305e-02 2.269930708357808e-01 3.929305691024250e-01 5.334639570767830e-01 -2.602835999581324e-01
            4.271263601832267e-02 -1.086137496679626e-02 3.284110200223100e-02 -2.408227141791486e-02 5.335177681952193e-01 -2.603762690675606e-01 2.269955857333900e-01 3.928967883188864e-01
            2.269033223247688e-01 3.929127875144631e-01 5.335857727197262e-01 -2.603255269832966e-01 2.460992744530819e-02 -1.959194283671561e-02 3.850266274608692e-02 -1.353051127218733e-02
            5.335439464782404e-01 -2.603315295435719e-01 2.269688771666547e-01 3.929245943457662e-01 3.852028657234120e-02 -1.363515453855022e-02 2.464361953155707e-02 -1.954253893419856e-02
197835696.4136780798 3.017633192737780e-02 -8.455060150160733e-03 4.095305319156071e-02 3.245342063423846e-03 2.847789763259080e-01 3.495439733100612e-01 4.874245359417639e-01 -3.426180512979876e-01
            4.112152909866162e-02 3.195363043730926e-03 3.020282680854957e-02 -8.432613479415195e-03 4.874077529263129e-01 -3.425898114842572e-01 2.848202630337311e-01 3.495409372108766e-01
            2.848432145426101e-01 3.494619923010275e-01 4.874975639713198e-01 -3.425797613366200e-01 2.127227141618505e-02 -2.937891221876333e-03 3.549734880724612e-02 1.384796589445560e-03
            4.874551529101058e-01 -3.426434150257310e-01 2.847796302668049e-01 3.495534028246062e-01 3.538913207174659e-02 1.391827694969524e-03 2.132569123490822e-02 -3.008232387131178e-03
198335279.3994995952 3.275758787123700e-02 7.230573045753915e-03 4.399855405215608e-02 1.698786257384922e-02 3.340725981006975e-01 2.979095530094494e-01 4.282060058093671e-01 -4.168296322030243e-01
            4.407300721806131e-02 1.698912585848432e-02 3.273750583101287e-02 7.207128948445495e-03 4.280851367605204e-01 -4.167720717261166e-01 3.341063079147067e-01 2.978663462495286e-01
            3.340244673136480e-01 2.978600260019222e-01 4.280401017786167e-01 -4.167797208353587e-01 2.333717943479730e-02 1.390367009263991e-02 3.725184971397472e-02 1.671133912939016e-02
            4.280536363087422e-01 -4.167837230670242e-01 3.340560491075760e-01 2.979036454769670e-01 3.727205549032264e-02 1.661638639601958e-02 2.336080517952988e-02 1.387034482257563e-02
198834862.3853211105 4.015629912209254e-02 2.131454332967475e-02 5.141895749348269e-02 2.906059242050523e-02 3.736599382412867e-01 2.399830445287079e-01 3.570128414941516e-01 -4.803446953166666e-01
            5.147376404351919e-02 2.904239543451530e-02 4.009884660626677e-02 2.128973212912542e-02 3.570046918709266e-01 -4.804077539125249e-01 3.737344572587328e-01 2.399889202163901e-01
            3.736804842858349e-01 2.399546959142621e-01 3.570124371238859e-01 -4.803116138570657e-01 3.053558941693119e-02 2.899660654776470e-02 4.397949722394050e-02 3.045639943603273e-02
            3.570276252140445e-01 -4.804300805175074e-01 3.737013082127456e-01 2.400260469243699e-01 4.402771891273238e-02 3.056245128463994e-02 3.053900759588525e-02 2.902491738654131e-02
199334445.3711426258 5.150133018177468e-02 3.208737058685827e-02 6.237768379748241e-02 3.793486891632709e-02 4.033248337098381e-01 1.775132770313377e-01 2.763619538147940e-01 -5.313856048899817e-01
            6.240869897664434e-02 3.792450722492634e-02 5.154158778009127e-02 3.211362429813271e-02 2.763510232589420e-01 -5.314716059344917e-01 4.032686910224583e-01 1.774974731732024e-01
            4.032243135015792e-01 1.775663965448885e-01 2.763608508803393e-01 -5.313967505753744e-01 4.196954405061717e-02 4.112517520128632e-02 5.469390286735899e-02 4.153451033690220e-02
            2.764326377415978e-01 -5.314314540981596e-01 4.032704967355064e-01 1.775499086423864e-01 5.472113465203986e-02 4.150507824806296e-02 4.192867432451282e-02 4.105897386325756e-02
199834028.3569641411 6.561126627770916e-02 3.879992276188010e-02 7.565650658872269e-02 4.281461696858115e-02 4.226533084752121e-01 1.124121362780783e-01 1.885933273033793e-01 -5.683210963440275e-01
            7.561437746674150e-02 4.284656178190423e-02 6.563683025913267e-02 3.878534992475312e-02 1.886010461070672e-01 -5.683895261909512e-01 4.226397446242149e-01 1.124227193046305e-01
            4.226331678707893e-01 1.124235049624830e-01 1.885917883522591e-01 -5.683948578645990e-01 5.628676513734920e-02 4.895835937504566e-02 6.825975470007926e-02 4.855954936930651e-02
            1.885751206756190e-01 -5.683230137287038e-01 4.225545707323946e-01 1.124403273500029e-01 6.833451189641312e-02 4.852336718549163e-02 5.625326276725205e-02 4.888110529294074e-02
200333611.3427856565 8.094549588529541e-02 4.063094242112038e-02 8.968449914411845e-02 4.309211079623696e-02 4.319132334551483e-01 4.617563988374753e-02 9.640218908585227e-02 -5.903550928392264e-01
            8.960674661096338e-02 4.313761062955224e-02 8.098260963788309e-02 4.069854610439091e-02 9.641146524543927e-02 -5.903660593317722e-01 4.320034310400684e-01 4.611572271543796e-02
            4.319147763746210e-01 4.625017143030226e-02 9.638605160719552e-02 -5.904151742328893e-01 7.210194706851283e-02 5.194937903234668e-02 8.320196328845876e-02 5.102717577644960e-02
            9.634946045829670e-02 -5.904549103425826e-01 4.318223786477946e-01 4.618180346124089e-02 8.321972736657572e-02 5.094069232479999e-02 7.201737099180731e-02 5.184840930144662e-02
200833194.3286071718 9.603139031663804e-02 3.765187553361524e-02 1.029312154477783e-01 3.888219453942478e-02 4.314357166603278e-01 -1.995490598284972e-02 2.420970529264118e-03 -5.972198104888433e-01
            1.029088483575869e-01 3.892611060162406e-02 9.595648136094220e-02 3.763761156731098e-02 2.479707879927312e-03 -5.972678441723466e-01 4.314333786543780e-01 -1.990212803271169e-02
            4.314463446018556e-01 -1.998824610935891e-02 2.445517853133997e-03 -5.971864124409071e-01 8.771478115030301e-02 4.993879819972082e-02 9.804384842384700e-02 4.878133796717896e-02
            2.485509279321039e-03 -5.972498302596633e-01 4.314115731305551e-01 -1.995707732621421e-02 9.799655340639071e-02 4.881021155571014e-02 8.764217908337607e-02 4.988294598901141e-02
201332777.3144286871 1.092331811070674e-01 3.023748979531134e-02 1.141395410393024e-01 3.079128572788388e-02 4.216708631825451e-01 -8.481315619627683e-02 -9.063046689949546e-02 -5.892908863366084e-01
            1.142183602684376e-01 3.084195966045914e-02 1.092122003803298e-01 3.020864663440936e-02 -9.062914670615696e-02 -5.892979667929180e-01 4.215959444714645e-01 -8.474772077050684e-02
            4.216255203635016e-01 -8.481550184387987e-02 -9.059503450821724e-02 -5.893041305264138e-01 1.016424820771370e-01 4.324897049437228e-02 1.114001072854636e-01 4.220991107178669e-02
            -9.067061142270481e-02 -5.892983755301460e-01 4.216444398832064e-01 -8.477790541194793e-02 1.113467188701128e-01 4.229117562224215e-02 1.016226388705918e-01 4.333460604614177e-02
201832360.3002502024 1.194790643936158e-01 1.925058682655537e-02 1.224743937417315e-01 1.957105575780827e-02 4.026140393318612e-01 -1.473092908995205e-01 -1.805815001596056e-01 -5.670683412840524e-01
            1.224183450611823e-01 1.957309358241395e-02 1.194540666457121e-01 1.915323737026093e-02 -1.806714775890643e-01 -5.670859258025377e-01 4.027011226256690e-01 -1.472896841585614e-01
            4.027233802999233e-01 -1.472622586097981e-01 -1.805937237310934e-01 -5.670449532871313e-01 1.127060218373423e-01 3.304755243305077e-02 1.219223823734062e-01 3.202970611907642e-02
            -1.805921663004275e-01 -5.670968539262009e-01 4.026688621106142e-01 -1.472696269614734e-01 1.218818504606437e-01 3.199014786048873e-02 1.126861499969337e-01 3.301440469688283e-02
202331943.2860717177 1.257428666512470e-01 5.707721342816386e-03 1.267196009543494e-01 6.226715529800106e-03 3.750174640188597e-01 -2.065428493944098e-01 -2.654759296873234e-01 -5.317012952875207e-01
            1.267089297024535e-01 6.244732041535483e-03 1.257940215277803e-01 5.634912032551410e-03 -2.654914492447117e-01 -5.316759095802129e-01 3.749715276381758e-01 -2.065112188699146e-01
            3.749946816874196e-01 -2.065130057689528e-01 -2.655110268085524e-01 -5.317537091683432e-01 1.199571746859204e-01 1.993488117430559e-02 1.289576058686512e-01 1.935613785911670e-02
            -2.654585878215753e-01 -5.316736346221028e-01 3.749556855795534e-01 -2.065517258768696e-01 1.290163482953623e-01 1.930499859993207e-02 1.199385316371233e-01 1.999721314395654e-02
202831526.2718932629 1.277174296246364e-01 -9.184292607165162e-03 1.267317986115358e-01 -7.761447600228937e-03 3.387372965826884e-01 -2.612434252406154e-01 -3.436829728376385e-01 -4.842568925327738e-01
            1.267354153614051e-01 -7.801036661796733e-03 1.277560136816795e-01 -9.155392600750246e-03 -3.436597307340696e-01 -4.842745862522360e-01 3.386943739503857e-01 -2.612019050919739e-01
            3.387303642107238e-01 -2.612804349270643e-01 -3.436402770599983e-01 -4.842968929568253e-01 1.228002546655336e-01 5.580968977756461e-03 1.317320344505443e-01 5.168795349369582e-03
            -3.437529043268435e-01 -4.842825631150667e-01 3.386956504893393e-01 -2.612910661430097e-01 1.317681664597453e-01 5.174457972997184e-03 1.228236142931007e-01 5.569577546310568e-03
203331109.2577147782 1.250625407461286e-01 -2.401618582021088e-02 1.224180274952993e-01 -2.127215169945310e-02 2.944975753682157e-01 -3.103738168550463e-01 -4.137293750086111e-01 -4.259947237776472e-01
            1.224321334204806e-01 -2.122741841943649e-02 1.249936857415480e-01 -2.403700537420660e-02 -4.138011394647655e-01 -4.260159081158529e-01 2.945222227092811e-01 -3.103527483632523e-01
            2.944569796573533e-01 -3.103720739640237e-01 -4.137189845699439e-01 -4.259603971867468e-01 1.210398157406749e-01 -8.952130273060785e-03 1.302271011555275e-01 -9.058829289715327e-03
            -4.137562974089811e-01 -4.259916212825898e-01 2.945961398812083e-01 -3.103731955219882e-01 1.302073299421832e-01 -9.028061111349288e-03 1.210617375211020e-01 -8.833578549431663e-03
203830692.2435362935 1.179338035148270e-01 -3.735465745410381e-02 1.140542377747634e-01 -3.288476127859781e-02 2.428625989121380e-01 -3.525023565073310e-01 -4.744241254349570e-01 -3.580940268766059e-01
            1.140498331623395e-01 -3.292309799319815e-02 1.179540069825523e-01 -3.737867129091457e-02 -4.744204332051288e-01 -3.581443478766940e-01 2.428888986976896e-01 -3.526055164370963e-01
            2.428668383696524e-01 -3.525878808167815e-01 -4.744318501459944e-01 -3.581554932321708e-01 1.148837135077745e-01 -2.201422253622089e-02 1.245414302869213e-01 -2.216532546426458e-02
            -4.744165364279344e-01 -3.581975164793118e-01 2.428627048151310e-01 -3.525489487347360e-01 1.244996461327737e-01 -2.218017258842040e-02 1.148992744564940e-01 -2.197774474935845e-02
204330275.2293578088 1.070127729949694e-01 -4.803655086113468e-02 1.023930144319619e-01 -4.159420557261409e-02 1.847792506771712e-01 -3.864144845435259e-01 -5.245028560925681e-01 -2.820670956114893e-01
            1.022546091799074e-01 -4.166463840258247e-02 1.069881144135383e-01 -4.807664828479086e-02 -5.245709563673840e-01 -2.820573210542569e-01 1.847471032523448e-01 -3.864218593722298e-01
            1.847359372844916e-01 -3.865280215259037e-01 -5.246067173974445e-01 -2.821472689204504e-01 1.049416169909613e-01 -3.254883793642165e-02 1.150041988295081e-01 -3.287424279590261e-02
            -5.244855079106076e-01 -2.819669334900122e-01 1.847413132074619e-01 -3.864459644155671e-01 1.150983728001063e-01 -3.288607633863059e-02 1.049895629557044e-01 -3.252223254657177e-02
204829858.2151793242 9.324388716735141e-02 -5.491684034553836e-02 8.827286872326064e-02 -4.637630505087073e-02 1.214510232546963e-01 -4.107291240010804e-01 -5.631573387101085e-01 -1.988974510483680e-01
            8.828154024746011e-02 -4.628424464461774e-02 9.329543065144703e-02 -5.494928804062504e-02 -5.631429642733631e-01 -1.989313638697179e-01 1.214296674423367e-01 -4.108177942248017e-01
            1.214466595775004e-01 -4.107076300108792e-01 -5.632065427525125e-01 -1.989691421793849e-01 9.213032877657061e-02 -3.940098377039091e-02 1.028062357279168e-01 -4.017001426667506e-02
            -5.632406650871875e-01 -1.988605066721879e-01 1.213954378981780e-01 -4.107624176028558e-01 1.028781071494807e-01 -4.011471730513335e-02 9.207590764927362e-02 -3.936084081133124e-02
205329441.2010008395 7.780590595021993e-02 -5.724670857273236e-02 7.317216284970712e-02 -4.654004596239002e-02 5.456285141304020e-02 -4.246466789784392e-01 -5.891293276562372e-01 -1.103524704867246e-01
            7.316738186367877e-02 -4.649351803129079e-02 7.784651181896901e-02 -5.724522990024051e-02 -5.891940364775889e-01 -1.103694870641581e-01 5.445644651034789e-02 -4.246684996869000e-01
            5.450534806572452e-02 -4.245975270086363e-01 -5.892188469949147e-01 -1.103180014245792e-01 7.764199364802192e-02 -4.172645011016758e-02 8.895741306225674e-02 -4.320714828827071e-02
            -5.892513776664152e-01 -1.104272251534690e-01 5.448764788852910e-02 -4.246187091867309e-01 8.895736561948156e-02 -4.319347646990077e-02 7.760692688320374e-02 -4.174575655131586e-02
205829024.1868223548 6.221199418899725e-02 -5.463776374322180e-02 5.841341603401079e-02 -4.179541733247485e-02 -1.415254763407722e-02 -4.270228599366789e-01 -6.016853039840019e-01 -1.806054813544314e-02
            5.834474321193662e-02 -4.186342569134286e-02 6.217650160349460e-02 -5.464600074136032e-02 -6.017220038695194e-01 -1.807760045580153e-02 -1.403473419875055e-02 -4.271091332890358e-01
            -1.414235880247429e-02 -4.270423851864953e-01 -6.017164632155072e-01 -1.800334631177080e-02 6.292890963701540e-02 -3.931042193247222e-02 7.470996171142730e-02 -4.175460074786173e-02
            -6.017264998482122e-01 -1.800879227383364e-02 -1.408577190426179e-02 -4.271421615533761e-01 7.473535900699112e-02 -4.173969432783124e-02 6.298604976450260e-02 -3.925823763488109e-02
206328607.1726438701 4.798017567064548e-02 -4.724059101057011e-02 4.557724909732348e-02 -3.260856343234591e-02 -8.209579096849209e-02 -4.179672796976593e-01 -5.998998719025163e-01 7.608485020862710e-02
            4.559200573987191e-02 -3.260395671055939e-02 4.812674019117464e-02 -4.717702315314615e-02 -5.998466476261741e-01 7.612843790013019e-02 -8.212109503954571e-02 -4.179672809990851e-01
            -8.215454706223295e-02 -4.179891510745983e-01 -5.998798529322910e-01 7.621035199278041e-02 4.964996785720881e-02 -3.212095800337376e-02 6.171347339415967e-02 -3.572102355443657e-02
            -5.997938310443860e-01 7.612867834143737e-02 -8.215642861931374e-02 -4.179145811736017e-01 6.176685522652151e-02 -3.571207965032148e-02 4.970672194249865e-02 -3.212997068604323e-02
206828190.1584653854 3.694514291030738e-02 -3.560088587503966e-02 3.612771736745052e-02 -1.960892521032722e-02 -1.473883183997178e-01 -3.974535966156373e-01 -5.830323670878272e-01 1.699440344162260e-01
            3.608580574468622e-02 -1.960019994565662e-02 3.696119679194065e-02 -3.559775066943210e-02 -5.829588086179368e-01 1.699714638723169e-01 -1.474487175845744e-01 -3.974611337915088e-01
            -1.474426306059094e-01 -3.975064872979328e-01 -5.829333379277014e-01 1.699289801607296e-01 3.934720341453556e-02 -2.094461650856600e-02 5.146136017597256e-02 -2.576404937545590e-02
            -5.829417789004863e-01 1.698852229054092e-01 -1.474140738966818e-01 -3.974235810920613e-01 5.145119795220384e-02 -2.577739559117076e-02 3.928937701268776e-02 -2.084200878530702e-02
207327773.1442869008 2.990157545030598e-02 -2.092457884065630e-02 3.121795271290970e-02 -4.052938554267431e-03 -2.077376435217780e-01 -3.664990406547950e-01 -5.510546244201775e-01 2.606907033640560e-01
            3.120767942698971e-02 -4.041410967542488e-03 2.986998550314401e-02 -2.095413493407140e-02 -5.510186264915098e-01 2.606548987410848e-01 -2.078443547530236e-01 -3.665143679212965e-01
            -2.078064645085133e-01 -3.665032361233626e-01 -5.510609854561962e-01 2.606475304423770e-01 3.312320767541449e-02 -6.567411139059775e-03 4.491766192974486e-02 -1.295754717352125e-02
            -5.510677519182512e-01 2.606574207777985e-01 -2.077549874368144e-01 -3.665817008955086e-01 4.496650374459183e-02 -1.300168497358266e-02 3.317346312759949e-02 -6.615449536516985e-03
207827356.1301084161 2.790155260864936e-02 -4.886142515320597e-03 3.142096556658112e-02 1.245547681794178e-02 -2.615152282886131e-01 -3.263805684654648e-01 -5.043933640586222e-01 3.457776633347337e-01
            3.139664212613535e-02 1.237337282661881e-02 2.791694250332762e-02 -4.866867072227058e-03 -5.043678421872643e-01 3.458024826912896e-01 -2.614559754509579e-01 -3.264333872696938e-01
            -2.615239868007857e-01 -3.263253733015497e-01 -5.043177900006087e-01 3.457259399955340e-01 3.190994541524853e-02 9.109178362509197e-03 4.304650902663894e-02 1.150709354711320e-03
            -5.043791177846249e-01 3.457725173826403e-01 -2.614672850548104e-01 -3.263514292981876e-01 4.307742987871465e-02 1.103952459528367e-03 3.199291621437590e-02 8.990950718782351e-03
208326939.1159299314 3.103468156051228e-02 1.100525156590321e-02 3.683451717627181e-02 2.819507730511509e-02 -3.071644417847462e-01 -2.787511291116458e-01 -4.439533174846667e-01 4.224197095750712e-01
            3.683900826060872e-02 2.820582592524582e-02 3.104057421251366e-02 1.093937629884086e-02 -4.440769410764154e-01 4.223754876965494e-01 -3.071458461650101e-01 -2.786070288057241e-01
            -3.071334064154913e-01 -2.786956016657756e-01 -4.439901562803150e-01 4.223895791274511e-01 3.590942404429103e-02 2.441695485593006e-02 4.610220427083297e-02 1.519073420179732e-02
            -4.440347664769557e-01 4.223528694539751e-01 -3.071040327397037e-01 -2.786853990078128e-01 4.611841950362316e-02 1.521706101812931e-02 3.589869416862471e-02 2.441312116961997e-02
208826522.1017514765 3.904198475125208e-02 2.493744531001350e-02 4.704394547647146e-02 4.144160037940255e-02 -3.438306495452501e-01 -2.253393339860723e-01 -3.715924275593186e-01 4.881353660042794e-01
            4.709395215357762e-02 4.146945374032905e-02 3.895276159141700e-02 2.490826128495384e-02 -3.715862329419600e-01 4.881585452189822e-01 -3.438245056824689e-01 -2.254096203315975e-01
            -3.438459571276983e-01 -2.252710281962448e-01 -3.715942169284492e-01 4.881553025866039e-01 4.456588043012095e-02 3.768708759583106e-02 5.353427299716663e-02 2.730541125861941e-02
            -3.716652083270726e-01 4.880877378444184e-01 -3.438952553423789e-01 -2.253100245316690e-01 5.343531979934293e-02 2.728598177755091e-02 4.455321688706759e-02 3.771733042329437e-02
209326105.0875729918 5.078769449528701e-02 3.563421241243263e-02 6.077540373050610e-02 5.098869189824573e-02 -3.712901870499439e-01 -1.680648848460853e-01 -2.894015714577924e-01 5.409529876017928e-01
            6.076265919040410e-02 5.096133137377416e-02 5.089157219505257e-02 3.565919380746117e-02 -2.893377364840986e-01 5.409967647111573e-01 -3.713919280120855e-01 -1.679990610189158e-01
            -3.712996097802431e-01 -1.680783510146481e-01 -2.893648866907092e-01 5.410286644302249e-01 5.711064271600248e-02 4.766509260275040e-02 6.449365036471988e-02 3.633736056184914e-02
            -2.893351277341607e-01 5.409354222096929e-01 -3.713171871857962e-01 -1.679858869137635e-01 6.451927461434701e-02 3.620675903959413e-02 5.712290655836765e-02 4.764389476147630e-02
209825688.0733945072 6.516824334398728e-02 4.201698310938463e-02 7.674916677524247e-02 5.570194504874918e-02 -3.895665755532607e-01 -1.083197065455426e-01 -1.999627312206707e-01 5.795115847811059e-01
            7.680133227891332e-02 5.575901898624813e-02 6.509864127941464e-02 4.200248954776387e-02 -1.999469065539356e-01 5.794165200270130e-01 -3.894914565662780e-01 -1.082783399624787e-01
            -3.894883730736107e-01 -1.082616215278300e-01 -1.999111131818368e-01 5.794488034604588e-01 7.217305336232578e-02 5.315604708164861e-02 7.773583967356756e-02 4.119678554305632e-02
            -1.999191330686718e-01 5.793742057847204e-01 -3.895866872775956e-01 -1.082250045634589e-01 7.783785887779146e-02 4.111364787405834e-02 7.212683012871278e-02 5.317723243666159e-02
210325271.0592160225 8.049852123587922e-02 4.365622509615074e-02 9.323284603142365e-02 5.544546665455084e-02 -3.986425904946043e-01 -4.747658543086245e-02 -1.060159709653079e-01 6.027577214198622e-01
            9.326987403104996e-02 5.547890567671209e-02 8.049719838248162e-02 4.366652467970888e-02 -1.058874205115814e-01 6.027315911148630e-01 -3.985978185752541e-01 -4.742241998498742e-02
            -3.986627528852746e-01 -4.737912689075113e-02 -1.059957544750044e-01 6.027422781664327e-01 8.809562869943448e-02 5.382541106340834e-02 9.184273289349944e-02 4.154120776359678e-02
            -1.059150811640427e-01 6.027284875696889e-01 -3.986417919578061e-01 -4.746229619503771e-02 9.193007522934180e-02 4.149327287972896e-02 8.810647783417425e-02 5.383316635488317e-02
210824854.0450375378 9.530205987476555e-02 4.052003451185312e-02 1.089204804372809e-01 5.028271383599869e-02 -3.990078511022485e-01 1.330088299781514e-02 -1.022037908118060e-02 6.105881547569280e-01
            1.088788216749362e-01 5.032937369687760e-02 9.529794863407620e-02 4.052495966014791e-02 -1.022671545142733e-02 6.106983627714110e-01 -3.989947969450348e-01 1.332350259966026e-02
            -3.990554989416153e-01 1.333036488206982e-02 -1.022114291452134e-02 6.106141311637900e-01 1.034473525654632e-01 4.955096778081487e-02 1.052845296355911e-01 3.730140443976571e-02
            -1.024335698542181e-02 6.106438986033108e-01 -3.989259291961254e-01 1.326403517566213e-02 1.052943823649523e-01 3.729993067250618e-02 1.034931387777562e-01 4.961638304725867e-02
211324437.0308590531 1.082711101944085e-01 3.320169140573115e-02 1.221699515284387e-01 4.074428763023894e-02 -3.907682782089049e-01 7.306458616424827e-02 8.476570815375575e-02 6.035600141306826e-01
            1.221188440358108e-01 4.075106159873303e-02 1.082772635656681e-01 3.317424665816073e-02 8.478863093341596e-02 6.034828062701552e-01 -3.907733429113175e-01 7.305050382344716e-02
            -3.908221639930958e-01 7.313780555618234e-02 8.476478524080926e-02 6.035303738375268e-01 1.167461131650362e-01 4.094737193307946e-02 1.167623397937320e-01 2.922431455761826e-02
            8.475440420273680e-02 6.035230851579325e-01 -3.907919980730736e-01 7.309404726160845e-02 1.167757834025074e-01 2.917807807058877e-02 1.166837177177357e-01 4.087469325860640e-02
211824020.0166805685 1.182904138230513e-01 2.247745578720853e-02 1.319272676035266e-01 2.774895727029558e-02 -3.743858087595976e-01 1.310257947549931e-01 1.767464606284229e-01 5.819515084484426e-01
            1.319755097479406e-01 2.784165583643226e-02 1.182557148558192e-01 2.257771061491361e-02 1.767496985430659e-01 5.820061868626335e-01 -3.742888187108020e-01 1.309684809200884e-01
            -3.743240768416911e-01 1.310125084700492e-01 1.767622159092835e-01 5.820138931459545e-01 1.268687806290558e-01 2.890169129133857e-02 1.251653975881394e-01 1.770675780468655e-02
            1.768479311496558e-01 5.820444556788702e-01 -3.744007530140905e-01 1.309806035963350e-01 1.251416432791737e-01 1.772486932530025e-02 1.268889667311885e-01 2.877058969862213e-02
212323603.0025020838 1.244626891402072e-01 9.522408965877400e-03 1.375685422452308e-01 1.282174717131037e-02 -3.496364149153922e-01 1.860434206360877e-01 2.638398846620795e-01 5.470452748473619e-01
            1.375212746151874e-01 1.287432060708774e-02 1.244423834505539e-01 9.419118776090569e-03 2.637241310445858e-01 5.471009462671604e-01 -3.496732226070303e-01 1.859679771704704e-01
            -3.496447109557013e-01 1.860252047187335e-01 2.638053937882257e-01 5.470487800223798e-01 1.328945170667366e-01 1.431645275793067e-02 1.298107246477347e-01 4.205541435408501e-03
            2.637787548950781e-01 5.470372919691185e-01 -3.497011098960108e-01 1.860063821190491e-01 1.297758296745189e-01 4.150576416702988e-03 1.329285982263632e-01 1.425087609152074e-02
212823185.9883235991 1.263480013280903e-01 -4.622384867984290e-03 1.383869348926625e-01 -3.105773312414340e-03 -3.171048738220623e-01 2.372984125319794e-01 3.442383791094809e-01 4.997931348603562e-01
            1.383268255384382e-01 -3.132320335637463e-03 1.262990613245759e-01 -4.628503802654591e-03 3.441401583611459e-01 4.997025479256765e-01 -3.171290997639170e-01 2.372659046520019e-01
            -3.170799416949065e-01 2.372834182323473e-01 3.441038897988982e-01 4.997899057226284e-01 1.344846376523503e-01 -1.320073953296577e-03 1.300690242698227e-01 -1.023501597946431e-02
            3.442041023772631e-01 4.997750718798930e-01 -3.171361668419209e-01 2.372766789130936e-01 1.300239751069287e-01 -1.017519764953127e-02 1.344647249787153e-01 -1.358561232653318e-03
213322768.9741451144 1.239615213375067e-01 -1.855617289446600e-02 1.346804835099913e-01 -1.842864235312608e-02 -2.769909664507787e-01 2.834694438314387e-01 4.164800423559863e-01 4.413552343738391e-01
            1.346909009874399e-01 -1.852253616646461e-02 1.239750496327663e-01 -1.861673725057944e-02 4.164756797190394e-01 4.413858512232413e-01 -2.769813938119489e-01 2.834021576194995e-01
            -2.769614997255178e-01 2.834146971695804e-01 4.163936583095618e-01 4.413796582129724e-01 1.313641254489348e-01 -1.678503475987361e-02 1.259621976457641e-01 -2.422525104423037e-02
            4.164272614768877e-01 4.412876403931663e-01 -2.769919525747722e-01 2.833647771670172e-01 1.259277126780509e-01 -2.413604393071329e-02 1.314070433477178e-01 -1.679183906008976e-02
213822351.9599666297 1.174567669765320e-01 -3.108015135538231e-02 1.266316900447882e-01 -3.212115057928221e-02 -2.297959321703306e-01 3.233937078628982e-01 4.793290770891190e-01 3.730474945502602e-01
            1.266674756989989e-01 -3.211697031715604e-02 1.174673757842685e-01 -3.108766993775651e-02 4.793344880876482e-01 3.730680567025301e-01 -2.297998460785261e-01 3.233115668059005e-01
            -2.297607445331008e-01 3.233487124189956e-01 4.793209808960556e-01 3.729815016524533e-01 1.238953570567622e-01 -3.061183999411912e-02 1.177489110495818e-01 -3.662162937421285e-02
            4.793445016048091e-01 3.731186347300438e-01 -2.297618638229920e-01 3.233774708012092e-01 1.176721505160531e-01 -3.653955057031830e-02 1.238592861660256e-01 -3.060055430340973e-02
214321934.9457881749 1.074062821707718e-01 -4.086903424035104e-02 1.150276466753708e-01 -4.271326628510836e-02 -1.762944447242233e-01 3.557510069820976e-01 5.317057829683229e-01 2.961435363736595e-01
            1.150477321578345e-01 -4.273308700589463e-02 1.074180976492190e-01 -4.089582266450558e-02 5.317256050288942e-01 2.961439187256495e-01 -1.762874622422746e-01 3.556729274813603e-01
            -1.762912138962575e-01 3.557883832742424e-01 5.317121166941887e-01 2.961558637922096e-01 1.125335354147667e-01 -4.157076737913842e-02 1.059949029136459e-01 -4.605615525210573e-02
            5.317003944056737e-01 2.961592859235210e-01 -1.763555075328896e-01 3.557210314746494e-01 1.060332161340450e-01 -4.606575858360863e-02 1.124555297100452e-01 -4.162268208533689e-02
214821517.9316096902 9.482750219841050e-02 -4.702718732968218e-02 1.006832838190262e-01 -4.942726236493821e-02 -1.178177352957448e-01 3.793902350798216e-01 5.724876072635006e-01 2.118893319670518e-01
            1.007316393668206e-01 -4.940216320878137e-02 9.480343359746211e-02 -4.711160938683197e-02 5.725090512205967e-01 2.119179903973350e-01 -1.178689777378607e-01 3.792969310676456e-01
            -1.178053301697963e-01 3.793840483383308e-01 5.724762976709116e-01 2.119180987644467e-01 9.834089808380038e-02 -4.868335670683261e-02 9.174296433820481e-02 -5.166374921699354e-02
            5.724292732157105e-01 2.119618838264497e-01 -1.177431555717690e-01 3.792885103793300e-01 9.175856309299539e-02 -5.175792603984000e-02 9.841445885489822e-02 -4.865988502718196e-02
215321100.9174312055 8.078342125962763e-02 -4.898176260260478e-02 8.511413026003381e-02 -5.136866827069939e-02 -5.566578473280562e-02 3.930472945965788e-01 6.004151203451427e-01 1.218817058199141e-01
            8.509693694778118e-02 -5.131237636520097e-02 8.083398533952849e-02 -4.903001570488497e-02 6.003134603318709e-01 1.218394389094502e-01 -5.572618309160771e-02 3.930526333176881e-01
            -5.577024059830537e-02 3.930451203231370e-01 6.003272808749632e-01 1.219081995615856e-01 8.267100843813213e-02 -5.121413400242462e-02 7.612883583637402e-02 -5.291196961260119e-02
            6.003225890037350e-01 1.218172620803686e-01 -5.584227582853532e-02 3.930792514623787e-01 7.618207912993448e-02 -5.279621651968176e-02 8.269193343715953e-02 -5.126678631609560e-02
215820683.9032527208 6.690474498304506e-02 -4.627370289165778e-02 6.965734547848497e-02 -4.843375882051514e-02 8.093601701571222e-03 3.961765880882573e-01 6.145665115618851e-01 2.771471618142470e-02
            6.973252090887080e-02 -4.849502319065779e-02 6.694132153125201e-02 -4.620167210556548e-02 6.145751599491468e-01 2.769649593625939e-02 8.064906165300336e-03 3.961805158376345e-01
            8.041225021165610e-03 3.961413693250109e-01 6.145796474760985e-01 2.773883325688732e-02 6.698045987733481e-02 -4.878586565348450e-02 6.056704257700345e-02 -4.918508803869653e-02
            6.145535530259923e-01 2.767947813570975e-02 7.972425741174285e-03 3.961732196286996e-01 6.059411725978855e-02 -4.914271472460966e-02 6.694450944675552e-02 -4.879930374041413e-02
216320266.8890742362 5.449764746932677e-02 -3.917648986508038e-02 5.601125347645802e-02 -4.103665360986155e-02 7.153512167940514e-02 3.883142942911242e-01 6.140705757715001e-01 -6.861674725882519e-02
            5.601254720102921e-02 -4.104215084562481e-02 5.452632731137631e-02 -3.913404193288500e-02 6.139655100316735e-01 -6.857514119573203e-02 7.144342779109870e-02 3.883618140568609e-01
            7.142992248194549e-02 3.883785038455347e-01 6.140302747017949e-01 -6.861172923745000e-02 5.282652890939499e-02 -4.147047540797549e-02 4.676342947863497e-02 -4.081798808897062e-02
            6.140354914128525e-01 -6.855667092605977e-02 7.147249313696892e-02 3.884380962308694e-01 4.667063349879633e-02 -4.086283383721354e-02 5.278709369211135e-02 -4.152639727134434e-02
216819849.8748957515 4.515401347531325e-02 -2.826691070219476e-02 4.537741507408238e-02 -2.965933687307846e-02 1.323525990301873e-01 3.699219636836512e-01 5.982048604986311e-01 -1.646034320833288e-01
            4.543016090734252e-02 -2.962762754788810e-02 4.512736163981373e-02 -2.834272232868116e-02 5.982574525547391e-01 -1.645576643077090e-01 1.323572078129913e-01 3.699846690335835e-01
            1.323364626950555e-01 3.699618639522370e-01 5.982684979550810e-01 -1.645634932265073e-01 4.156283398648739e-02 -3.011845211849960e-02 3.598008366472254e-02 -2.845243633359281e-02
            5.981713727557945e-01 -1.645851294490558e-01 1.324021153434471e-01 3.699351729769577e-01 3.597891311068262e-02 -2.851345040263292e-02 4.159111897282367e-02 -3.017490708291894e-02
217319432.8607172668 3.980094393419858e-02 -1.478899780688640e-02 3.908964145301572e-02 -1.546496845672818e-02 1.886792741448017e-01 3.416617502187170e-01 5.669087011453114e-01 -2.576664219723976e-01
            3.902821617559974e-02 -1.555656875173851e-02 3.979943793373733e-02 -1.486513374849991e-02 5.669558119498641e-01 -2.577073295969661e-01 1.887094315995356e-01 3.416728718845802e-01
            1.887264450382359e-01 3.417158886020624e-01 5.669341814408075e-01 -2.576976547009354e-01 3.468300837324580e-02 -1.582335904325788e-02 2.954765575515444e-02 -1.324188553812302e-02
            5.668620626190473e-01 -2.576756931963442e-01 1.887823959910207e-01 3.415680473493385e-01 2.944886284007115e-02 -1.328953988595331e-02 3.455846453770579e-02 -1.581020271495997e-02
217819015.8465387821 3.922636481810098e-02 -3.249688338714751e-04 3.771818550758949e-02 -3.602615318377549e-04 2.388444943247920e-01 3.048634320500112e-01 5.204946273332194e-01 -3.452114990214301e-01
            3.764329745214127e-02 -3.732429946240438e-04 3.922398635097907e-02 -3.732649795571664e-04 5.205955564349888e-01 -3.452049854339636e-01 2.388785993816536e-01 3.048205514782564e-01
            2.388602083916902e-01 3.047508723680958e-01 5.205255480885552e-01 -3.452228514297081e-01 3.265935459068216e-02 -1.546268533675996e-04 2.808485321052326e-02 3.174984427174444e-03
            5.205026153335431e-01 -3.452575432587778e-01 2.388678614429792e-01 3.047744200630170e-01 2.809515782289611e-02 3.257950932787281e-03 3.274140046588163e-02 -6.941702628111763e-05
218318598.8323602974 4.348574560732407e-02 1.365144772727621e-02 4.112813773048835e-02 1.432455586746063e-02 2.815120421481315e-01 2.609006559769273e-01 4.601082488660241e-01 -4.242763125801055e-01
            4.120235430298587e-02 1.433693520754994e-02 4.351329921092544e-02 1.364613456674952e-02 4.600818251306011e-01 -4.243428442679196e-01 2.815560960532918e-01 2.608303411207839e-01
            2.815541385288433e-01 2.609720584019934e-01 4.600740973431177e-01 -4.243457038521389e-01 3.582895878254697e-02 1.521932466930326e-02 3.177724993066748e-02 1.933077657359947e-02
            4.600489604369103e-01 -4.243624703950680e-01 2.815365902424228e-01 2.609241080200694e-01 3.176422481572015e-02 1.922475802405989e-02 3.584954840721315e-02 1.526042607069858e-02
218818181.8181818128 5.203719994229847e-02 2.544327940485943e-02 4.930683509934634e-02 2.681505865489009e-02 3.159591204433425e-01 2.117452271337416e-01 3.873075444744444e-01 -4.924851589362382e-01
            4.921840344883530e-02 2.683128296393712e-02 5.206492437400403e-02 2.546475473220320e-02 3.872723199657622e-01 -4.925690766656783e-01 3.159522145449183e-01 2.116707864610477e-01
            3.159508464932416e-01 2.117071482748434e-01 3.872851182709114e-01 -4.925323452751574e-01 4.378243996570441e-02 2.861942112289147e-02 4.029938386328151e-02 3.329179436567527e-02
            3.872324715710234e-01 -4.924873288433317e-01 3.159782642446461e-01 2.117100407254409e-01 4.011537628869099e-02 3.328288564557748e-02 4.377556481212763e-02 2.864882986468415e-02
219317764.8040033281 6.406221812011861e-02 3.389099878793599e-02 6.070028738089484e-02 3.577436069416783e-02 3.417624369808396e-01 1.587966341605963e-01 3.042385251412608e-01 -5.477330143117729e-01
            6.073462442564423e-02 3.586296310619260e-02 6.403217541984596e-02 3.383356967178136e-02 3.042187181677779e-01 -5.477551619563636e-01 3.417779269487602e-01 1.587602092959123e-01
            3.417427163633473e-01 1.588140323120849e-01 3.042257153271960e-01 -5.477075158528354e-01 5.543781917168099e-02 3.863821118235526e-02 5.250078863730565e-02 4.388993538063626e-02
            3.042204522168906e-01 -5.478240685451226e-01 3.417322514222793e-01 1.588079698500805e-01 5.251397493691599e-02 4.388799056015420e-02 5.544718956641581e-02 3.857495329935925e-02
219817347.7898248434 7.813690316257940e-02 3.790758324247206e-02 7.429944046551437e-02 4.066772026523451e-02 3.590065532888325e-01 1.036375432012978e-01 2.136130327228901e-01 -5.883975360507026e-01
            7.427626380669854e-02 4.058780960781808e-02 7.810614972430337e-02 3.797103307860041e-02 2.136202812621930e-01 -5.884170274019607e-01 3.590270496788302e-01 1.036539836168054e-01
            3.591310696233559e-01 1.036347977742227e-01 2.136250006733342e-01 -5.883675693515351e-01 6.944396195874475e-02 4.420963235752411e-02 6.720314623382032e-02 5.019760623728491e-02
            2.136162619303802e-01 -5.884167841537853e-01 3.590008229534966e-01 1.036315986735274e-01 6.715809901564754e-02 5.015892333871553e-02 6.945498587057752e-02 4.416394914091676e-02
220316930.7756463885 9.273949497158925e-02 3.734325314969582e-02 8.842534873394975e-02 4.062349268594869e-02 3.678434153614357e-01 4.742738690676796e-02 1.181965053895527e-01 -6.137916420718449e-01
            8.836541643183335e-02 4.063115946602661e-02 9.271963643722805e-02 3.735838267046151e-02 1.181897160249024e-01 -6.138033551104879e-01 3.679413596724024e-01 4.755035332967078e-02
            3.679750537275788e-01 4.746670878104414e-02 1.181971610504601e-01 -6.137668836839800e-01 8.434984759548478e-02 4.500630251412011e-02 8.281745389007659e-02 5.167734035500483e-02
            1.181821270622474e-01 -6.137949557323400e-01 3.678418501180619e-01 4.742111372654118e-02 8.280598840016501e-02 5.164115450443454e-02 8.435446570436951e-02 4.500742339445953e-02
220816513.7614679039 1.063111053599028e-01 3.236752611092102e-02 1.016076364871670e-01 3.620444149384747e-02 3.686452376747733e-01 -8.746871449656449e-03 2.063071447038045e-02 -6.235616024488663e-01
            1.016116957484153e-01 3.624021641542362e-02 1.063273846194427e-01 3.224172328943188e-02 2.060099081566701e-02 -6.236161749695732e-01 3.687135798021393e-01 -8.783774910392650e-03
            3.686894391739790e-01 -8.617890832447028e-03 2.065220977492720e-02 -6.236374675972099e-01 9.853643034169934e-02 4.110718853503662e-02 9.782761363330925e-02 4.829212180459576e-02
            2.065693791887836e-02 -6.236008051058768e-01 3.687567555955724e-01 -8.693458291969615e-03 9.779316593428100e-02 4.834253687234843e-02 9.855596839913816e-02 4.110211138712321e-02
221316096.7472894192 1.177919435276233e-01 2.329244008408467e-02 1.126165022402940e-01 2.789952237563264e-02 3.616144279259216e-01 -6.407077825755969e-02 -7.646508022456266e-02 -6.179871402619278e-01
            1.125622129366977e-01 2.789043352287949e-02 1.177737239325394e-01 2.330290132642967e-02 -7.641901408973911e-02 -6.179418029912009e-01 3.615189711115874e-01 -6.405017373239183e-02
            3.615545321552406e-01 -6.402525662162388e-02 -7.643519495886932e-02 -6.180048046994190e-01 1.106114413619949e-01 3.301718988780223e-02 1.109038165725691e-01 4.075167892724608e-02
            -7.640967834924305e-02 -6.179938197502007e-01 3.615135363266236e-01 -6.394876958078997e-02 1.108901524471058e-01 4.080781780052984e-02 1.106496644899644e-01 3.307414076296697e-02
221815679.7331109345 1.259592377720539e-01 1.125253971968599e-02 1.203045484372360e-01 1.665734862169642e-02 3.467504492970997e-01 -1.176525314850557e-01 -1.707722798979102e-01 -5.977614467572355e-01
            1.202849813364407e-01 1.671377542408633e-02 1.260251191668143e-01 1.127628225382538e-02 -1.708370754084442e-01 -5.977412420632154e-01 3.467043307685658e-01 -1.176347859788613e-01
            3.466919134272779e-01 -1.176889400151250e-01 -1.708593282721756e-01 -5.977691268225352e-01 1.195563014426961e-01 2.169304431933538e-02 1.209030893688513e-01 2.986947773757234e-02
            -1.708602902348937e-01 -5.976935014886192e-01 3.467104559330641e-01 -1.176479850364430e-01 1.208469453539296e-01 2.990636388531337e-02 1.195788539039534e-01 2.168680908583869e-02
222315262.7189324498 1.302121572107208e-01 -2.695909632348691e-03 1.241076698739514e-01 3.624484178118142e-03 3.242364154253013e-01 -1.688190536936462e-01 -2.604189025611491e-01 -5.636114801194584e-01
            1.241054576016686e-01 3.592544945307551e-03 1.301565775009094e-01 -2.768939547828980e-03 -2.604540255976355e-01 -5.636136401902861e-01 3.243392662732155e-01 -1.688830815737958e-01
            3.242932924599933e-01 -1.687789456152491e-01 -2.604478685844594e-01 -5.636268194519716e-01 1.245433688923094e-01 8.176426512727165e-03 1.270874009647685e-01 1.662573300575450e-02
            -2.605220152657139e-01 -5.635982959633912e-01 3.243310552486768e-01 -1.688414676620721e-01 1.271910540866571e-01 1.664893270419288e-02 1.245044943719896e-01 8.200290156924032e-03
222814845.7047539651 1.301144145724182e-01 -1.738486981118515e-02 1.236180834295006e-01 -9.984674307587369e-03 2.944870478350182e-01 -2.164366029094484e-01 -3.435932053002529e-01 -5.167144844573628e-01
            1.235761532198092e-01 -1.001881808161363e-02 1.300520117584679e-01 -1.738639948224939e-02 -3.437283669920420e-01 -5.166729629541430e-01 2.945023904494615e-01 -2.163738399255735e-01
            2.945473789806392e-01 -2.163971513821309e-01 -3.436946506044363e-01 -5.167108638239174e-01 1.250090567896648e-01 -6.200321492076680e-03 1.290889326248417e-01 2.352241890227088e-03
            -3.436198258949574e-01 -5.167364383663875e-01 2.944863487253183e-01 -2.164451359236986e-01 1.290249911410801e-01 2.442951504539347e-03 1.251450285537522e-01 -6.183808988432250e-03
223314428.6905754805 1.254858629211044e-01 -3.142472148170398e-02 1.189132266764749e-01 -2.287403299818635e-02 2.576273987893771e-01 -2.594213448860880e-01 -4.187472003775903e-01 -4.582267966577109e-01
            1.188715625016578e-01 -2.280669785669575e-02 1.255632485625656e-01 -3.134194422229868e-02 -4.187977560863195e-01 -4.581858312644673e-01 2.576096410320465e-01 -2.594405483749198e-01
            2.576598645346030e-01 -2.593501261432334e-01 -4.187677936829515e-01 -4.582890961947496e-01 1.211721018270724e-01 -1.999856990307755e-02 1.265836331073328e-01 -1.169486089060569e-02
            -4.188262531975488e-01 -4.582699124832385e-01 2.575233696141695e-01 -2.593931473706498e-01 1.266032039072967e-01 -1.162958475811902e-02 1.211787255528163e-01 -1.997832963534179e-02
223814011.6763969958 1.170099860470317e-01 -4.342087152622820e-02 1.102737926384642e-01 -3.378344905149090e-02 2.140840971651361e-01 -2.965625025290218e-01 -4.844280652144833e-01 -3.892044917764338e-01
            1.102876973823502e-01 -3.369615105679431e-02 1.169683439534253e-01 -4.354164576389524e-02 -4.844948707536750e-01 -3.892318471057216e-01 2.140217340734049e-01 -2.965907391615143e-01
            2.139849785714752e-01 -2.965893300859384e-01 -4.844759685900722e-01 -3.892531864837938e-01 1.131166349782754e-01 -3.210276691736647e-02 1.200519998377009e-01 -2.423393891284856e-02
            -4.844847147585148e-01 -3.892462155737619e-01 2.140359164371429e-01 -2.966456729779354e-01 1.200287878051455e-01 -2.428883069352745e-02 1.131054556811195e-01 -3.216269475966963e-02
224313594.6622185111 1.051211330169056e-01 -5.250135933993361e-02 9.863975043301176e-02 -4.149202671604654e-02 1.647636660657694e-01 -3.266180334630616e-01 -5.394076207850188e-01 -3.111549683798519e-01
            9.862784377010383e-02 -4.143058856785941e-02 1.050983292484304e-01 -5.244681020459259e-02 -5.394728930818177e-01 -3.110941509774034e-01 1.647062159885310e-01 -3.266871405481465e-01
            1.647496173510240e-01 -3.266211137964694e-01 -5.394569990385841e-01 -3.111023977305087e-01 1.017064064862952e-01 -4.119074176957974e-02 1.098765994794430e-01 -3.395745306416503e-02
            -5.394328557118966e-01 -3.111550810187691e-01 1.646379469223640e-01 -3.266906587523998e-01 1.098733274266235e-01 -3.407642749407074e-02 1.016234686746024e-01 -4.115409507580439e-02
224813177.6480400264 9.102910474953188e-02 -5.767953203611792e-02 8.485583738736664e-02 -4.525328584796572e-02 1.106864250943905e-01 -3.486009937165860e-01 -5.824583126366509e-01 -2.252696322451909e-01
            8.484071846654771e-02 -4.522316845798942e-02 9.096594442274428e-02 -5.765315238504130e-02 -5.824421415630060e-01 -2.252305227768848e-01 1.107108874334445e-01 -3.486080970426526e-01
            1.106262752332026e-01 -3.485502805604468e-01 -5.825481031604685e-01 -2.252694702923020e-01 8.780767778204771e-02 -4.625326526438993e-02 9.716979107592232e-02 -4.019345356680290e-02
            -5.824860129265368e-01 -2.252738256856417e-01 1.105754768142228e-01 -3.485649768199718e-01 9.727003757114133e-02 -4.029020149969313e-02 8.778861389277563e-02 -4.639426167446086e-02
225312760.6338615417 7.584081544821580e-02 -5.822039896177382e-02 7.033155717271612e-02 -4.454780428357884e-02 5.323615828025696e-02 -3.612184772352770e-01 -6.123851648134513e-01 -1.331592358480564e-01
            7.040719911283233e-02 -4.449357981201418e-02 7.586562976861404e-02 -5.813528129575147e-02 -6.124337709970908e-01 -1.331552366415104e-01 5.337631711116141e-02 -3.612506872718733e-01
            5.336072460749405e-02 -3.612421024204632e-01 -6.124446750874597e-01 -1.331862766124328e-01 7.269771125843100e-02 -4.686306087361207e-02 8.322215309876516e-02 -4.218212933015072e-02
            -6.123328854265729e-01 -1.331321782250787e-01 5.332199412776557e-02 -3.612512597972989e-01 8.333092795677824e-02 -4.219829591574653e-02 7.281566821017459e-02 -4.689109549702458e-02
225812343.6196830869 6.112417638577557e-02 -5.395613376863061e-02 5.661151043326478e-02 -3.912829550248959e-02 -5.304750823817951e-03 -3.640182574011450e-01 -6.280325876851770e-01 -3.670382390787041e-02
            5.665024990273315e-02 -3.914850506392549e-02 6.120573603406060e-02 -5.396327550378428e-02 -6.280431926056559e-01 -3.673392204232313e-02 -5.466172427590646e-03 -3.639960963707105e-01
            -5.425606748043713e-03 -3.640475718766011e-01 -6.280149148824664e-01 -3.674264756787340e-02 5.815642981652065e-02 -4.268341505861507e-02 6.942201038295610e-02 -3.949122912038328e-02
            -6.280762690430012e-01 -3.672914597085927e-02 -5.474154355426250e-03 -3.640007937493067e-01 6.941850752400902e-02 -3.953216095750946e-02 5.813862178904718e-02 -4.264725174499430e-02
226311926.6055046022 4.842127098931574e-02 -4.544085443503779e-02 4.502782444208936e-02 -2.950289525169354e-02 -6.364196842046566e-02 -3.567210526884077e-01 -6.285280466491041e-01 6.198421570250090e-02
            4.505517367251998e-02 -2.958628338442150e-02 4.851171891566156e-02 -4.537940410528195e-02 -6.284947684393629e-01 6.196239952554106e-02 -6.379246471933377e-02 -3.567018259461865e-01
            -6.376499037877754e-02 -3.567402618165202e-01 -6.284521611233802e-01 6.200349607903775e-02 4.537191555728612e-02 -3.391327322124270e-02 5.708802262621355e-02 -3.250496251138997e-02
            -6.284566313726572e-01 6.194129068273576e-02 -6.374136660665766e-02 -3.567743568103482e-01 5.708254696187656e-02 -3.250372421107699e-02 4.537460257061961e-02 -3.396265760732566e-02
226811509.5913261175 3.910450094347685e-02 -3.329052036506652e-02 3.707997221444077e-02 -1.659067154306955e-02 -1.195404468637424e-01 -3.397349467648405e-01 -6.132073786811929e-01 1.604133407965709e-01
            3.701504159445177e-02 -1.663849487076760e-02 3.920063861189884e-02 -3.326007243345163e-02 -6.131472101220984e-01 1.605488708901414e-01 -1.195572862498398e-01 -3.396993160307831e-01
            -1.195972035173432e-01 -3.397427255021774e-01 -6.132614912602401e-01 1.604125730583754e-01 3.610347094134305e-02 -2.142097883269675e-02 4.782801170299388e-02 -2.182342290950825e-02
            -6.132440342897756e-01 1.604836832689716e-01 -1.195558409161959e-01 -3.397010348169276e-01 4.764376574894786e-02 -2.186108890188462e-02 3.598011604736464e-02 -2.149043366846696e-02
227311092.5771476328 3.421146479950562e-02 -1.877410656976758e-02 3.353478460204475e-02 -1.562413779442525e-03 -1.710515143223730e-01 -3.136535891506973e-01 -5.820194258693956e-01 2.560488619557284e-01
            3.346175880809032e-02 -1.582549352993320e-03 3.412187377413668e-02 -1.867674917342993e-02 -5.819612126186380e-01 2.560399347664721e-01 -1.710695653088123e-01 -3.136485262194352e-01
            -1.710590759348045e-01 -3.137001612713464e-01 -5.819800798896760e-01 2.560607453327168e-01 3.099884537933360e-02 -6.556598344163136e-03 4.238276046218262e-02 -8.655833935741403e-03
            -5.820429178501707e-01 2.560280242917604e-01 -1.711279496420614e-01 -3.137248123995054e-01 4.239729304757799e-02 -8.680158738485337e-03 3.097537076727608e-02 -6.512395978948906e-03
227810675.5629691482 3.410200997216301e-02 -3.419260782648877e-03 3.495794878947455e-02 1.387432092091084e-02 -2.168475361675317e-01 -2.800294499805080e-01 -5.353605410809824e-01 3.457800294815444e-01
            3.490534457034344e-02 1.397377005046685e-02 3.407980164287561e-02 -3.498613285298917e-03 -5.353144752477482e-01 3.457469348581175e-01 -2.167912528344332e-01 -2.799110457116716e-01
            -2.167266772377765e-01 -2.799574245188866e-01 -5.353353306058681e-01 3.457405739464655e-01 3.105631632916266e-02 9.300299520933746e-03 4.162586838721587e-02 5.510808044352859e-03
            -5.353855199671439e-01 3.457667363006474e-01 -2.167778670678324e-01 -2.799759328176560e-01 4.169565059584658e-02 5.516714575727530e-03 3.106266075494508e-02 9.297175067694122e-03
228310258.5487906635 3.884112704151796e-02 1.103248033103576e-02 4.127150723559975e-02 2.819155936260448e-02 -2.555460970615975e-01 -2.400562139276865e-01 -4.743207936939374e-01 4.269185313591050e-01
            4.131574283844536e-02 2.822792010764045e-02 3.882226286145464e-02 1.099375208170897e-02 -4.743638600845136e-01 4.269567931822928e-01 -2.556772816668500e-01 -2.399282600262676e-01
            -2.556587199367300e-01 -2.399522520232823e-01 -4.743134696390132e-01 4.269634146865064e-01 3.611072194798727e-02 2.428427894007004e-02 4.568507642407830e-02 1.912910791824559e-02
            -4.743463210911940e-01 4.269404800085171e-01 -2.556904159267210e-01 -2.399900277918548e-01 4.564776698396666e-02 1.910615218725338e-02 3.613038380566203e-02 2.431967986062557e-02
228809841.5346121788 4.797615537111626e-02 2.306635267344567e-02 5.181532835671847e-02 3.972890940579187e-02 -2.869769191441057e-01 -1.952586778448632e-01 -4.007334424983776e-01 4.970816547294898e-01
            5.173044133634359e-02 3.979561064317278e-02 4.783861143145329e-02 2.310098279195461e-02 -4.007402321995715e-01 4.969422694697603e-01 -2.869155606964987e-01 -1.952317520681925e-01
            -2.869566930903498e-01 -1.953344002536288e-01 -4.006911922822857e-01 4.969640234655983e-01 4.564922794970301e-02 3.699995464716140e-02 5.383791765920945e-02 3.055056653747391e-02
            -4.007273761004637e-01 4.969663983337659e-01 -2.869964745704541e-01 -1.952663927551282e-01 5.383287564248886e-02 3.071338954116012e-02 4.570976780766403e-02 3.700663826268380e-02
229309424.5204336941 6.024267640226379e-02 3.150425932181306e-02 6.530654455623762e-02 4.742480430558368e-02 -3.105122150625571e-01 -1.473041057015818e-01 -3.168352773699817e-01 5.538048288036047e-01
            6.543025267494459e-02 4.751152177412708e-02 6.029806195603690e-02 3.146701183902986e-02 -3.168389337226450e-01 5.538008578248703e-01 -3.105502344536343e-01 -1.473805738630029e-01
            -3.105430639600379e-01 -1.473653733180144e-01 -3.168271126339784e-01 5.538655715397264e-01 5.876504720747013e-02 4.591495905602167e-02 6.519249692875832e-02 3.874356199229455e-02
            -3.168543452855372e-01 5.538657863053001e-01 -3.105415783696946e-01 -1.474173894124832e-01 6.521440706058027e-02 3.874709901638961e-02 5.878236033764422e-02 4.588067884466554e-02
229809007.5062552094 7.432062580396671e-02 3.545726936070177e-02 8.055382309920321e-02 5.047150494956116e-02 -3.264599538620190e-01 -9.753012072285679e-02 -2.251737267647453e-01 5.960771139800892e-01
            8.053720027726327e-02 5.049549731181616e-02 7.432769737045956e-02 3.552481543616162e-02 -2.252496463658961e-01 5.962005518423963e-01 -3.264531778641926e-01 -9.748928966443923e-02
            -3.265169353083931e-01 -9.743604032273290e-02 -2.252222365806435e-01 5.961918566898355e-01 7.374794305142264e-02 5.032728118214684e-02 7.850839449238095e-02 4.279050098162003e-02
            -2.251935047538420e-01 5.961455184692855e-01 -3.264490831594588e-01 -9.739817315272188e-02 7.855623148741116e-02 4.279730587883404e-02 7.384900252453065e-02 5.029241582118308e-02
230308590.4920767248 8.885955071471803e-02 3.489263346177698e-02 9.580804640680585e-02 4.869808133833203e-02 -3.349676630816161e-01 -4.655707157504407e-02 -1.286138176866094e-01 6.229776759795348e-01
            9.591263933848088e-02 4.876480102699746e-02 8.884519357415077e-02 3.489865954839402e-02 -1.285756233550855e-01 6.229904155018782e-01 -3.350219283430420e-01 -4.659125643247932e-02
            -3.349946143438788e-01 -4.656178041444643e-02 -1.285841853646822e-01 6.228231242593762e-01 8.928878750888175e-02 4.980358649297780e-02 9.237755170550414e-02 4.239185878300306e-02
            -1.285247908018042e-01 6.230246154581011e-01 -3.350159565329710e-01 -4.658142779307769e-02 9.232849887540705e-02 4.228795855952124e-02 8.935481068642080e-02 4.984033718317628e-02
230808173.4778982401 1.023065052705371e-01 2.995198351941844e-02 1.097688774947919e-01 4.242730088437784e-02 -3.361857183792706e-01 4.384214104040255e-03 -2.966790229765056e-02 6.341106443787956e-01
            1.097675817847852e-01 4.239448002037163e-02 1.023349529852083e-01 2.987142308419849e-02 -2.971069211140682e-02 6.341014531748845e-01 -3.361446666284194e-01 4.328657609209607e-03
            -3.362882752580226e-01 4.338987788775359e-03 -2.962994974553327e-02 6.341467476689795e-01 1.038271842857786e-01 4.469360593022528e-02 1.053579723525672e-01 3.768233180371213e-02
            -2.972805683125001e-02 6.341993002627310e-01 -3.361803527798000e-01 4.322888645815944e-03 1.053554753556866e-01 3.765759705022140e-02 1.038354819794895e-01 4.470211214794177e-02
231307756.4637197852 1.134105561702203e-01 2.103588210153120e-02 1.210555600578150e-01 3.234305336435950e-02 -3.303794102640802e-01 5.473252215158175e-02 6.896491064231637e-02 6.297519230650026e-01
            1.210463072101961e-01 3.238088346471042e-02 1.134549132831891e-01 2.105613045041885e-02 6.893485060682104e-02 6.298342966118469e-01 -3.303598696986702e-01 5.469356546864732e-02
            -3.303784124464469e-01 5.473201603688182e-02 6.891461723619756e-02 6.297626922642319e-01 1.159352983291794e-01 3.544780089846799e-02 1.161361843012695e-01 2.913323622974773e-02
            6.891483663364605e-02 6.297927123855270e-01 -3.303018730409924e-01 5.476400021773589e-02 1.160802910750723e-01 2.926318244183794e-02 1.159833999732910e-01 3.542386861905647e-02
231807339.4495413005 1.212628383896541e-01 9.409207555476093e-03 1.287587100578038e-01 1.947863129361955e-02 -3.175571721942309e-01 1.037587711492824e-01 1.649588958380021e-01 6.105189739052965e-01
            1.287406208250452e-01 1.944592591446486e-02 1.212398597129560e-01 9.308173102604874e-03 1.650677696713342e-01 6.105899834325591e-01 -3.174818088255993e-01 1.037957782272948e-01
            -3.175521220466669e-01 1.037346184336439e-01 1.650709408102694e-01 6.105862378596022e-01 1.247534652142171e-01 2.306656614840069e-02 1.237705759492930e-01 1.787654479276718e-02
            1.650227891191827e-01 6.105207716267180e-01 -3.175469370395929e-01 1.037018761941835e-01 1.238280710861190e-01 1.789173773679551e-02 1.248562708282062e-01 2.314212099440944e-02
232306922.4353628159 1.251238508023617e-01 -4.164293749636946e-03 1.322655970958960e-01 4.900719795323552e-03 -2.977392712087502e-01 1.505744443513580e-01 2.566168064394759e-01 5.772870420512253e-01
            1.322274980813248e-01 4.859380219564356e-03 1.252147701971066e-01 -4.109062952726741e-03 2.566239592853583e-01 5.772358413717682e-01 -2.977168995182453e-01 1.506861997859842e-01
            -2.976561085236828e-01 1.506101667400619e-01 2.565700956789949e-01 5.771943755880412e-01 1.294353072632435e-01 8.706422531101869e-03 1.277270067032298e-01 4.765913447524371e-03
            2.566389644268967e-01 5.772334594991384e-01 -2.977349144976806e-01 1.506331807496356e-01 1.277255937377760e-01 4.853481058399610e-03 1.294960889516732e-01 8.697863228995670e-03
232806505.4211843312 1.248137686621538e-01 -1.803783977978639e-02 1.312464650642023e-01 -9.960182672984440e-03 -2.711208562656704e-01 1.944868755342246e-01 3.417271045639285e-01 5.308828737734712e-01
            1.312797036063454e-01 -9.963941659892506e-03 1.248428925151621e-01 -1.811332825504795e-02 3.419042986198523e-01 5.308685819160111e-01 -2.711787457073383e-01 1.945120402093621e-01
            -2.711112314341124e-01 1.944702908849817e-01 3.418421341730773e-01 5.308414276564273e-01 1.296001664585197e-01 -6.391964702600867e-03 1.274212930620988e-01 -8.938158319948908e-03
            3.417022623488193e-01 5.308030115312865e-01 -2.711219794760166e-01 1.944004662690473e-01 1.274792376188380e-01 -8.941898014713782e-03 1.295826149815921e-01 -6.367648773422180e-03
233306088.4070058465 1.202519495682794e-01 -3.129485054293746e-02 1.258677200204099e-01 -2.378505044233661e-02 -2.378835847955806e-01 2.342517088586051e-01 4.190962174204632e-01 4.725461289700784e-01
            1.258632118033154e-01 -2.382307062963539e-02 1.202896733851114e-01 -3.130279392177387e-02 4.191556889605271e-01 4.725646256092492e-01 -2.379235466578270e-01 2.341994906230284e-01
            -2.379524783394817e-01 2.342906873151594e-01 4.190928783777745e-01 4.725263531959422e-01 1.252250582423436e-01 -2.076226227597874e-02 1.230909370419513e-01 -2.206189909028988e-02
            4.191609978262680e-01 4.725789901444052e-01 -2.378550176066476e-01 2.342778859126606e-01 1.231497690456195e-01 -2.198749655398854e-02 1.251837761828329e-01 -2.074200569032069e-02
233805671.3928273618 1.119390386959292e-01 -4.241718017627834e-02 1.166841782958938e-01 -3.540488527597843e-02 -1.984454527487247e-01 2.687972733471329e-01 4.870308459072980e-01 4.034323605305757e-01
            1.166935763548584e-01 -3.545065267821424e-02 1.119944339140704e-01 -4.245361375599193e-02 4.870353563609952e-01 4.035083345769596e-01 -1.984071084531439e-01 2.687393739235054e-01
            -1.984102619618884e-01 2.687844744459644e-01 4.870786587429385e-01 4.034563421268942e-01 1.166693654429678e-01 -3.321490267119254e-02 1.149051674049592e-01 -3.326773160892105e-02
            4.870225398446201e-01 4.034357632339244e-01 -1.983894459987121e-01 2.687728056080536e-01 1.149383029321438e-01 -3.325092907096117e-02 1.167076151135901e-01 -3.325071185228585e-02
234305254.3786488771 1.004449588260955e-01 -5.068132503006721e-02 1.043446535506738e-01 -4.377734180664870e-02 -1.534434739362383e-01 2.967748532900932e-01 5.442718883649645e-01 3.247429862686723e-01
            1.043876341485186e-01 -4.380911326973982e-02 1.005256611010465e-01 -5.060053332036607e-02 5.442666056573169e-01 3.248280469424081e-01 -1.535190658713569e-01 2.969430559217162e-01
            -1.535071394475639e-01 2.968945136310803e-01 5.442789792874984e-01 3.247026405277879e-01 1.047745477601884e-01 -4.253756209845912e-02 1.036851998350254e-01 -4.170813728489869e-02
            5.442365770672652e-01 3.247993779979553e-01 -1.534618717473075e-01 2.968257854167028e-01 1.036020705460473e-01 -4.168083287737657e-02 1.047545051179536e-01 -4.256709025429952e-02
234804837.3644703925 8.703736323860832e-02 -5.492837993503413e-02 8.988144226267877e-02 -4.794871625964552e-02 -1.040561413120138e-01 3.174428711632567e-01 5.893444116185467e-01 2.379614836957386e-01
            8.993462204003977e-02 -4.788985069922357e-02 8.706802964069205e-02 -5.477238444974451e-02 5.893342978099844e-01 2.379391410328045e-01 -1.041254333047372e-01 3.173232240782984e-01
            -1.041900525082143e-01 3.173218230277056e-01 5.893794922797874e-01 2.379389278491713e-01 9.051196554584345e-02 -4.791950882986528e-02 9.015879201788697e-02 -4.631056485044098e-02
            5.894239764659052e-01 2.378904359291504e-01 -1.040296928320515e-01 3.173940795756515e-01 9.020361019048989e-02 -4.626227892035233e-02 9.047393660232281e-02 -4.786833005356605e-02
235304420.3502919078 7.287945498076936e-02 -5.479586066286975e-02 7.501131381647134e-02 -4.755607011153273e-02 -5.162613820482534e-02 3.293606624673247e-01 6.212055003467472e-01 1.446004084520119e-01
            7.499981787923328e-02 -4.748378334624831e-02 7.280300802410326e-02 -5.478451146333805e-02 6.211508228758369e-01 1.445747662764575e-01 -5.162785124522581e-02 3.293160235249686e-01
            -5.168061534342874e-02 3.293203363505436e-01 6.211036410036888e-01 1.445445950169950e-01 7.519252414285718e-02 -4.853220419069228e-02 7.580141772686977e-02 -4.659427886265102e-02
            6.211200862778141e-01 1.445235185730576e-01 -5.161180435678146e-02 3.292968264418681e-01 7.574346583293017e-02 -4.666302995202780e-02 7.514043902431672e-02 -4.849552668220443e-02
235804003.3361134231 5.934738648191571e-02 -5.020321223982686e-02 6.082052064585469e-02 -4.248714319933827e-02 2.142303761557985e-03 3.322713991119123e-01 6.383682528137341e-01 4.649001860825924e-02
            6.081729399277957e-02 -4.249390455270050e-02 5.927600901606966e-02 -5.019715211895586e-02 6.383987283547412e-01 4.660001557861767e-02 2.158799707675655e-03 3.322307663940691e-01
            2.203608501652020e-03 3.321953165699508e-01 6.385244293312234e-01 4.653526769931937e-02 6.030459870055885e-02 -4.437708960376379e-02 6.191499369443598e-02 -4.239045153781824e-02
            6.383974023595271e-01 4.650993532577066e-02 2.166070791454655e-03 3.321899482451627e-01 6.188289318003272e-02 -4.241361504532653e-02 6.035962666635183e-02 -4.431878549587868e-02
236303586.3219349384 4.786846393850038e-02 -4.147216338310565e-02 4.897230452832304e-02 -3.323317064353009e-02 5.568696637802394e-02 3.257644303960708e-01 6.402480778543802e-01 -5.393040969242926e-02
            4.888476647582937e-02 -3.320745015143486e-02 4.783608702957471e-02 -4.147165662107456e-02 6.402281933640062e-01 -5.386669009711186e-02 5.564747733060318e-02 3.257829145047436e-01
            5.562407360433651e-02 3.257926946446661e-01 6.402436113835170e-01 -5.392579094958193e-02 4.760141015310305e-02 -3.558056377170193e-02 4.971906017476210e-02 -3.399574995874871e-02
            6.402678129802084e-01 -5.396825545753154e-02 5.561033502238714e-02 3.258309092809286e-01 4.980765491168265e-02 -3.408465459125331e-02 4.757374326317167e-02 -3.574924084445080e-02
236803169.3077564538 3.981415157113083e-02 -2.945479120264829e-02 4.055636358845808e-02 -2.068190777406336e-02 1.066113573230458e-01 3.103359318502216e-01 6.259509764696809e-01 -1.543331524032118e-01
            4.055098105244896e-02 -2.059400771375582e-02 3.982239313523665e-02 -2.950898242985077e-02 6.258696503969294e-01 -1.542794721950523e-01 1.066897261182964e-01 3.103424910109022e-01
            1.067104641746817e-01 3.103369130832448e-01 6.259226403392703e-01 -1.543218877159588e-01 3.814847361593204e-02 -2.332494000572962e-02 4.092163968102865e-02 -2.221594796266136e-02
            6.259185111790349e-01 -1.543471689620407e-01 1.066993942811992e-01 3.104051467243367e-01 4.095157415649028e-02 -2.227393883967461e-02 3.815172506928537e-02 -2.332784540020267e-02
237302752.2935779989 3.608310401820802e-02 -1.548059358394178e-02 3.678557246431854e-02 -6.054962417126595e-03 1.538388312246986e-01 2.866551688953899e-01 5.954406665078971e-01 -2.519127620334479e-01
            3.678539113850094e-02 -6.140588402116096e-03 3.609362217698125e-02 -1.547782441076345e-02 5.953736775612998e-01 -2.518833763943555e-01 1.538081786566915e-01 2.867395226147625e-01
            1.538087996176649e-01 2.867333822832587e-01 5.953718069579043e-01 -2.519130961066584e-01 3.313343852039337e-02 -8.666183862269895e-03 3.620033350100674e-02 -8.130688131983086e-03
            5.954286413003590e-01 -2.518838805705786e-01 1.538337719367064e-01 2.866943574513260e-01 3.626818052204989e-02 -8.153977227717208e-03 3.311222035018443e-02 -8.724301423040840e-03
237802335.2793995142 3.711864219168262e-02 -1.108070223069760e-03 3.780142684609848e-02 8.895080017406678e-03 1.954904329199952e-01 2.560362598452118e-01 5.491724076679564e-01 -3.436859716766044e-01
            3.777169714946198e-02 8.875534526672347e-03 3.711867145198221e-02 -1.128682298972397e-03 5.490557623145795e-01 -3.436087165936619e-01 1.955034988817141e-01 2.561001859384103e-01
            1.954497824884260e-01 2.560543332217309e-01 5.491542536880409e-01 -3.437350484347030e-01 3.309835169658806e-02 6.816682819661241e-03 3.618986860763630e-02 6.594179020748656e-03
            5.491596027580646e-01 -3.436720998912434e-01 1.954285410316429e-01 2.559358063142359e-01 3.615771051357267e-02 6.608158187382418e-03 3.311988144647882e-02 6.816887368995171e-03
238301918.2652210295 4.274796526613136e-02 1.221298071190926e-02 4.361069479933061e-02 2.267697733874842e-02 2.309270508227084e-01 2.196430096095743e-01 4.881733742394637e-01 -4.267607703790788e-01
            4.353762601387609e-02 2.264273632689111e-02 4.265607156263069e-02 1.213027124034837e-02 4.882568388635985e-01 -4.268794427350657e-01 2.307895445510714e-01 2.198176935269125e-01
            2.308906616129610e-01 2.197413942786554e-01 4.882566204597726e-01 -4.268475662616930e-01 3.812692526482000e-02 2.136660624268718e-02 4.095180192791577e-02 2.052632712460315e-02
            4.882528581548539e-01 -4.268164074804988e-01 2.308013364815753e-01 2.197423399286977e-01 4.092619896981404e-02 2.054682646857769e-02 3.804929904563990e-02 2.134384371219124e-02
238801501.2510425448 5.228190605021692e-02 2.290844940177890e-02 5.336698619749430e-02 3.366641285161944e-02 2.593290871393930e-01 1.792393875424057e-01 4.144989889090956e-01 -4.988713676866969e-01
            5.328010483243699e-02 3.365115439014419e-02 5.228882430770478e-02 2.287022952494900e-02 4.145283016776634e-01 -4.989534696982553e-01 2.594188699390137e-01 1.791795225678181e-01
            2.594223697947578e-01 1.791367898764200e-01 4.144780742769620e-01 -4.989774552550277e-01 4.735632135312771e-02 3.355237281438112e-02 4.963775929245075e-02 3.212943193961875e-02
            4.145180354912725e-01 -4.988669790072802e-01 2.594011742718036e-01 1.792189441474309e-01 4.960380484841435e-02 3.221089617968508e-02 4.736680685066069e-02 3.345750417984213e-02
239301084.2368640602 6.473976303085208e-02 2.985053689459014e-02 6.592947401325860e-02 4.083115314328337e-02 2.809089323686761e-01 1.357634606038813e-01 3.302106337159964e-01 -5.578454324156363e-01
            6.606616062466381e-02 4.089998208684672e-02 6.473948641984964e-02 2.990240489826599e-02 3.301466353303490e-01 -5.578233368654830e-01 2.810098641796644e-01 1.357519758587727e-01
            2.809681054808942e-01 1.357509614588332e-01 3.301502178556650e-01 -5.577963767342385e-01 5.997766121357369e-02 4.195689357112831e-02 6.147165268231278e-02 4.037073992498565e-02
            3.302327187418969e-01 -5.577422052959721e-01 2.809094055966297e-01 1.357352862655053e-01 6.149759276911766e-02 4.040572932898193e-02 5.995066354749317e-02 4.191626383278369e-02
239800667.2226855755 7.869920530228736e-02 3.264784352164668e-02 8.004565210315409e-02 4.364655510723539e-02 2.956223957555521e-01 9.061841827842206e-02 2.378926642130452e-01 -6.020844250660149e-01
            8.005911270127469e-02 4.366180093625675e-02 7.870514918719861e-02 3.261869770274340e-02 2.379124035724830e-01 -6.020038398189814e-01 2.956111074873564e-01 9.056366129150552e-02
            2.956067495890781e-01 9.058026720899506e-02 2.378086228408660e-01 -6.020195100010222e-01 7.439779996050859e-02 4.588746399602842e-02 7.503820921721720e-02 4.444405924592922e-02
            2.378905070151998e-01 -6.020785551178043e-01 2.955229415290602e-01 9.061771960441667e-02 7.508388521658126e-02 4.436667831402504e-02 7.445928490951645e-02 4.594385103302590e-02
240300250.2085070908 9.261485385864017e-02 3.074306668046224e-02 9.413412451709847e-02 4.175559826691513e-02 3.035261130919362e-01 4.453165658123902e-02 1.402379302657110e-01 -6.307240561321148e-01
            9.426637090445611e-02 4.176201315044047e-02 9.275189470873715e-02 3.076332866761919e-02 1.402606465153846e-01 -6.308881767736049e-01 3.034946834459515e-01 4.459328106437300e-02
            3.035199681412263e-01 4.453504296805649e-02 1.402546251629312e-01 -6.307740018503687e-01 8.920618293472599e-02 4.508313872340156e-02 8.904254509608633e-02 4.397672564826201e-02
            1.402997406832271e-01 -6.308327813918755e-01 3.034090803013616e-01 4.450702758316864e-02 8.902499347857683e-02 4.399609277963432e-02 8.932463350465078e-02 4.509797412420097e-02
240799833.1943286061 1.053649494349434e-01 2.463501726560977e-02 1.068339644023009e-01 3.577006962300739e-02 3.048165344556421e-01 -1.680005521584269e-03 4.009060092829687e-02 -6.436639495364820e-01
            1.068673991068605e-01 3.569406410013833e-02 1.053666338136680e-01 2.467571872211553e-02 4.009906717283544e-02 -6.436979442816316e-01 3.048177510580337e-01 -1.698754365266593e-03
            3.048215790245704e-01 -1.720628246385598e-03 4.013829843403760e-02 -6.436278530906864e-01 1.030073183663939e-01 3.979766168774779e-02 1.019705246759973e-01 3.935088744419156e-02
            4.015949778264287e-02 -6.437475280880252e-01 3.048985865289380e-01 -1.710334078125110e-03 1.019158416647415e-01 3.925865086693491e-02 1.030511507867014e-01 3.969876299702310e-02
241299416.1801501215 1.154877983518057e-01 1.510282596844918e-02 1.169083596754888e-01 2.610298466480694e-02 2.998045346939430e-01 -4.735176599897398e-02 -6.011469086526412e-02 -6.409319885886832e-01
            1.169136012193586e-01 2.618255610210548e-02 1.154419497674389e-01 1.509785889685622e-02 -6.009147271982538e-02 -6.409455765367894e-01 2.998945807950065e-01 -4.735306915570330e-02
            2.998208650473769e-01 -4.739726812011273e-02 -6.004203273413149e-02 -6.409342941297156e-01 1.143465987780358e-01 3.042530147113383e-02 1.126680519314950e-01 3.106827433457932e-02
            -6.000474361739588e-02 -6.409300931818372e-01 2.998240319094035e-01 -4.741350709957345e-02 1.126095534377635e-01 3.101308473167895e-02 1.143749604276460e-01 3.047337586657468e-02
241798999.1659716368 1.222227837646254e-01 2.837907370098315e-03 1.233762282001068e-01 1.404797013197343e-02 2.884952539025897e-01 -9.196455630357492e-02 -1.579699942538956e-01 -6.229756066016237e-01
            1.234054398600000e-01 1.398366850803525e-02 1.221433646661779e-01 2.892628964220755e-03 -1.579145670777038e-01 -6.229470371309928e-01 2.884674873213205e-01 -9.195429130981563e-02
            2.884124489598854e-01 -9.192530856652859e-02 -1.579760708289981e-01 -6.230283404355782e-01 1.222823296168743e-01 1.823786656961061e-02 1.203048442322658e-01 1.998705079479604e-02
            -1.579822082521857e-01 -6.230378021843515e-01 2.884893519229208e-01 -9.188755628306501e-02 1.201854523126908e-01 1.998438530646026e-02 1.221195723395485e-01 1.819708249093789e-02
242298582.1517931521 1.250284697534430e-01 -1.081477819893385e-02 1.258767278087841e-01 5.237511823904079e-04 2.707877816193377e-01 -1.346566581143076e-01 -2.517054011694008e-01 -5.907103035435253e-01
            1.259348762472306e-01 4.798327466653311e-04 1.249523675648344e-01 -1.077883589087621e-02 -2.516097546542045e-01 -5.907757239084523e-01 2.707214243297796e-01 -1.346240397492232e-01
            2.706914872898653e-01 -1.346198056252824e-01 -2.516340671901746e-01 -5.907869109172267e-01 1.260227594295526e-01 4.135457363160930e-03 1.240743777286241e-01 7.385521770833948e-03
            -2.515441714633787e-01 -5.907005183098700e-01 2.707572034033832e-01 -1.346121572027908e-01 1.241768308687276e-01 7.343309237084476e-03 1.260479420901453e-01 4.089047880847248e-03
242798165.1376146972 1.234615658496692e-01 -2.473340197638766e-02 1.241158777147103e-01 -1.307978615572582e-02 2.467825497304491e-01 -1.745867932787732e-01 -3.391256352928916e-01 -5.450257707938154e-01
            1.240923699072784e-01 -1.307568183182587e-02 1.235604849783495e-01 -2.469953786404914e-02 -3.391632264677496e-01 -5.450768430451283e-01 2.468403037847265e-01 -1.746200826842670e-01
            2.468486545802867e-01 -1.745683524180235e-01 -3.390876728897148e-01 -5.450630059857441e-01 1.252930446621820e-01 -1.050535400443033e-02 1.239748287569771e-01 -5.876503898180201e-03
            -3.391025590556134e-01 -5.450682508146411e-01 2.468619775844556e-01 -1.745578760663427e-01 1.238513136494831e-01 -5.860303361826560e-03 1.252480636305640e-01 -1.044919041846654e-02
243297748.1234362125 1.179010668558839e-01 -3.753181519024267e-02 1.182367320703580e-01 -2.544829892993522e-02 2.167085368013651e-01 -2.108370127735695e-01 -4.188225365548765e-01 -4.869366939756989e-01
            1.182474545672332e-01 -2.545978818093142e-02 1.180219262469402e-01 -3.752731863202034e-02 -4.187680784658188e-01 -4.869204367642988e-01 2.167392044466918e-01 -2.108675389766066e-01
            2.167530769763175e-01 -2.108362214321303e-01 -4.188763906368533e-01 -4.869454169366758e-01 1.202104001748254e-01 -2.427209562395499e-02 1.197598672469934e-01 -1.844734051892922e-02
            -4.188260712959065e-01 -4.869554170942665e-01 2.168383637061004e-01 -2.108327195701852e-01 1.196664431888955e-01 -1.832173375738506e-02 1.202106456738151e-01 -2.421435299420934e-02
243797331.1092577279 1.088251019968562e-01 -4.810108197994369e-02 1.089060310360964e-01 -3.547227002948760e-02 1.810094256247084e-01 -2.423755163624153e-01 -4.891737096669355e-01 -4.175849357025198e-01
            1.088322842343251e-01 -3.545120116667462e-02 1.088455342741099e-01 -4.807941280485235e-02 -4.891002842905767e-01 -4.176515631224766e-01 1.810397452362834e-01 -2.423600695541295e-01
            1.810180315521232e-01 -2.423997547679398e-01 -4.891133663845239e-01 -4.176096740015334e-01 1.111313414386543e-01 -3.596216608311420e-02 1.119918654881469e-01 -2.907282234699974e-02
            -4.891328679022909e-01 -4.176032695222508e-01 1.809841246618459e-01 -2.423467716139615e-01 1.120092834488139e-01 -2.905426680616043e-02 1.111283246163936e-01 -3.592472271103425e-02
244296914.0950792432 9.687310085540737e-02 -5.555723736418519e-02 9.668013544774157e-02 -4.217436085067373e-02 1.401603270707912e-01 -2.679972186026499e-01 -5.485597479747991e-01 -3.382830673526033e-01
            9.680550989779543e-02 -4.232980097442252e-02 9.684828331822019e-02 -5.565790346981101e-02 -5.485576836421211e-01 -3.382691422299534e-01 1.401583351518393e-01 -2.679261139861698e-01
            1.401892753084272e-01 -2.679220812675960e-01 -5.485289404949915e-01 -3.383323404175081e-01 9.878255210977747e-02 -4.443428567626867e-02 1.011621134151385e-01 -3.685819189800822e-02
            -5.485197048423976e-01 -3.382256903992175e-01 1.402656108914898e-01 -2.679406269102990e-01 1.012742360769696e-01 -3.676595422280159e-02 9.879444992114850e-02 -4.450203538091336e-02
244796497.0809007585 8.313438984925950e-02 -5.903436889996376e-02 8.309938240496087e-02 -4.483753059171468e-02 9.536529641621605e-02 -2.865290437653015e-01 -5.957201049648566e-01 -2.504282258832303e-01
            8.308726184684236e-02 -4.485824193226326e-02 8.317046799586218e-02 -5.899097852814962e-02 -5.957365267763686e-01 -2.504264966742317e-01 9.540257050047671e-02 -2.865279861628069e-01
            9.533744800940289e-02 -2.865727935298743e-01 -5.957381511044222e-01 -2.504246857384945e-01 8.427569822958164e-02 -4.875384263755686e-02 8.849230753134663e-02 -4.091749046439173e-02
            -5.957259927659686e-01 -2.504559786003130e-01 9.529288553967460e-02 -2.865596730818679e-01 8.847634197763138e-02 -4.095163585549423e-02 8.434445260977776e-02 -4.878823281544672e-02
245296080.0667222738 6.898216550933162e-02 -5.810119729117113e-02 6.915999528465010e-02 -4.312025108932806e-02 4.773186868997840e-02 -2.973495695914931e-01 -6.293122493548854e-01 -1.557233313726968e-01
            6.925385552406897e-02 -4.310067266037599e-02 6.903301340243563e-02 -5.800151214162105e-02 -6.293213066748632e-01 -1.557106261119254e-01 4.780910178928562e-02 -2.974199565856125e-01
            4.769347777606693e-02 -2.973174830389723e-01 -6.292876040333143e-01 -1.557235295537026e-01 6.906383823052560e-02 -4.855891638714169e-02 7.504224110828756e-02 -4.091542201490267e-02
            -6.293586944646324e-01 -1.556912215638716e-01 4.775448799747472e-02 -2.973660452185696e-01 7.506392888412990e-02 -4.084903191465504e-02 6.903395320883064e-02 -4.851117362063789e-02
245795663.0525437891 5.577773696417899e-02 -5.280224501668192e-02 5.646574762082125e-02 -3.700376846686586e-02 -9.485481605469857e-04 -2.998977417380269e-01 -6.480410102027209e-01 -5.609717840237713e-02
            5.649338258055510e-02 -3.703690572985581e-02 5.578918224149150e-02 -5.277484083513182e-02 -6.481061402547811e-01 -5.614443860709038e-02 -1.025349959831642e-03 -2.998519511631141e-01
            -9.337424782904017e-04 -2.997839997952953e-01 -6.481048451721568e-01 -5.613225636708235e-02 5.449871086847398e-02 -4.354831857679465e-02 6.220650749495785e-02 -3.655612300842200e-02
            -6.481203888477103e-01 -5.618606668462861e-02 -9.912392610409277e-04 -2.998141882565609e-01 6.222895836407476e-02 -3.652076421203954e-02 5.447980290598679e-02 -4.350600357009998e-02
246295246.0383653045 4.499039350187401e-02 -4.367023559823136e-02 4.628451481658195e-02 -2.700372564796183e-02 -4.929947126547699e-02 -2.937597530623839e-01 -6.510508702229827e-01 4.615012743976176e-02
            4.624259937734843e-02 -2.708613358035702e-02 4.500937347106056e-02 -4.362574197089063e-02 -6.509806794405149e-01 4.607933107857243e-02 -4.926763544610934e-02 -2.937417218202972e-01
            -4.924077380132196e-02 -2.937887806382848e-01 -6.509815751877346e-01 4.609015513314382e-02 4.205984853207519e-02 -3.415490723528143e-02 5.122075410496568e-02 -2.841312302119001e-02
            -6.510672429312057e-01 4.602912793785822e-02 -4.925744518623396e-02 -2.937949508465063e-01 5.125972613237466e-02 -2.838641269315006e-02 4.191722099855935e-02 -3.419703620622091e-02
246794829.0241868198 3.771737137113625e-02 -3.153876849070979e-02 3.970998175619347e-02 -1.432397691443017e-02 -9.521417362501641e-02 -2.797115487963942e-01 -6.375006347748778e-01 1.482580448630921e-01
            3.970174398192478e-02 -1.440054568449906e-02 3.760218991968266e-02 -3.157372958514781e-02 -6.376273279499906e-01 1.483379090217528e-01 -9.518946113160906e-02 -2.796887515525642e-01
            -9.528189816963818e-02 -2.797399301830644e-01 -6.375614923420054e-01 1.482546416892651e-01 3.300893080710853e-02 -2.134479925564239e-02 4.343091854152532e-02 -1.712023155171867e-02
            -6.375490800026257e-01 1.482756294736947e-01 -9.523504513634815e-02 -2.797139274501849e-01 4.345087379586568e-02 -1.708588995633696e-02 3.302264412485067e-02 -2.135843018230345e-02
247294412.0100083351 3.465429913322544e-02 -1.779735789797894e-02 3.763064812145044e-02 -1.551270047334633e-04 -1.374847786060638e-01 -2.581806068549902e-01 -6.076046315767950e-01 2.475758108520924e-01
            3.759215448388398e-02 -2.153247642048990e-04 3.467932740989359e-02 -1.773964465986833e-02 -6.076172340635886e-01 2.476518445277563e-01 -1.374809358303536e-01 -2.582626174969255e-01
            -1.374807350539250e-01 -2.582236011379254e-01 -6.075958581032246e-01 2.475452777703268e-01 2.855922215717035e-02 -6.338288847833427e-03 3.969249816694755e-02 -3.796374534097076e-03
            -6.076457954350940e-01 2.476072382372952e-01 -1.374914995706608e-01 -2.582792278701823e-01 3.971923558221529e-02 -3.834652341469566e-03 2.858468829401153e-02 -6.361353059278376e-03
247793994.9958298504 3.630413727900990e-02 -3.897543610942910e-03 4.023954889064772e-02 1.390689310770538e-02 -1.749148342781578e-01 -2.305121245824261e-01 -5.616025644274661e-01 3.412006075095964e-01
            4.027755949950509e-02 1.388589694073196e-02 3.627737205154750e-02 -3.864804527622556e-03 -5.615774475051293e-01 3.411074625286195e-01 -1.748949636187913e-01 -2.305068663310630e-01
            -1.748413530527909e-01 -2.305744165883162e-01 -5.616571377080489e-01 3.411626693320965e-01 2.904183236148496e-02 9.267097994258063e-03 4.033171292456562e-02 9.944372855896876e-03
            -5.615778845302882e-01 3.411571867947709e-01 -1.748919627027721e-01 -2.306142960835619e-01 4.030852909425495e-02 9.937750550450455e-03 2.903384033968290e-02 9.423317451149684e-03
248293577.9816513956 4.238532593105592e-02 8.578499399475413e-03 4.724986455192217e-02 2.629375979040901e-02 -2.065074236666450e-01 -1.979366339647260e-01 -5.009226886864822e-01 4.261207479275329e-01
            4.735067497889572e-02 2.619987805696012e-02 4.234878023836192e-02 8.635092593528907e-03 -5.008651440676952e-01 4.262110342162003e-01 -2.065034090646850e-01 -1.979510283180465e-01
            -2.064680018248465e-01 -1.978768343666832e-01 -5.008644167821795e-01 4.260853631497836e-01 3.435074134666888e-02 2.397126104041066e-02 4.521191818847555e-02 2.266877661847952e-02
            -5.009022209572465e-01 4.261196740391719e-01 -2.064522742189984e-01 -1.979034651593399e-01 4.527119254560268e-02 2.262373696621712e-02 3.427547122619304e-02 2.393337834377028e-02
248793160.9674729109 5.204989171295359e-02 1.833427698953716e-02 5.791898144959672e-02 3.563233987066035e-02 -2.319189190853328e-01 -1.615906050004309e-01 -4.270975779468939e-01 4.999293438834495e-01
            5.789497411066167e-02 3.571591431708444e-02 5.201330929237825e-02 1.834282958348366e-02 -4.271340825690004e-01 4.999162448473067e-01 -2.320208821017189e-01 -1.616268852330514e-01
            -2.319834654054091e-01 -1.616059161321698e-01 -4.270880186425190e-01 4.999668973862361e-01 4.386889199382221e-02 3.602569142501964e-02 5.393275174277287e-02 3.309210167772647e-02
            -4.270585356088184e-01 4.999510808962004e-01 -2.318920533854449e-01 -1.615858110320080e-01 5.397550929675919e-02 3.308376315390782e-02 4.391943805843382e-02 3.605285864578021e-02
249292743.9532944262 6.436434004291366e-02 2.432827570228438e-02 7.081702067125735e-02 4.111959316958404e-02 -2.512842840639096e-01 -1.227262686535908e-01 -3.425549168330935e-01 5.605427886844065e-01
            7.082077321605076e-02 4.120377032653348e-02 6.432886595316741e-02 2.431361923669025e-02 -3.425699865872852e-01 5.605398841455430e-01 -2.512621938142150e-01 -1.227996384246649e-01
            -2.511971417178985e-01 -1.228232302857918e-01 -3.425560642684566e-01 5.605400587927454e-01 5.658194393871366e-02 4.443983763380575e-02 6.539124348155732e-02 4.013225607124873e-02
            -3.425485680876735e-01 5.605566557180867e-01 -2.511876660207807e-01 -1.228364557554061e-01 6.538487081489212e-02 4.014123615902640e-02 5.658898899784064e-02 4.439968469195629e-02
249792326.9391159415 7.769777069788958e-02 2.616457358392600e-02 8.478055546860658e-02 4.218704327355563e-02 -2.642909296962948e-01 -8.243697141135235e-02 -2.498056533846021e-01 6.065325669912266e-01
            8.480883473626112e-02 4.218236595793037e-02 7.769906820469168e-02 2.604754681028697e-02 -2.497894444101275e-01 6.065570660866690e-01 -2.643453377904106e-01 -8.233166638068319e-02
            -2.643989430999291e-01 -8.239778921116389e-02 -2.497840979300735e-01 6.064170503049580e-01 7.108976710847656e-02 4.840368333649898e-02 7.819323245544466e-02 4.327109770764630e-02
            -2.497842077852895e-01 6.065428599129065e-01 -2.644182943618477e-01 -8.246354849298194e-02 7.823011029211432e-02 4.328098578394443e-02 7.106051882780774e-02 4.839881685543313e-02
250291909.9249374568 9.085260009677397e-02 2.342178282624080e-02 9.834367198139565e-02 3.875460621801601e-02 -2.716182022782833e-01 -4.129190761842016e-02 -1.514883359802309e-01 6.369429881042565e-01
            9.826192480225955e-02 3.867709304619812e-02 9.089858863952432e-02 2.343947399562540e-02 -1.515742185095692e-01 6.370090644931639e-01 -2.715375168820876e-01 -4.131605435806084e-02
            -2.715446797126457e-01 -4.128231917581401e-02 -1.516003594307451e-01 6.369754884880415e-01 8.583048375469927e-02 4.773608939884527e-02 9.124564659371977e-02 4.230781320805933e-02
            -1.515012636021595e-01 6.369744468298619e-01 -2.716105445601453e-01 -4.126092157056234e-02 9.128433777262350e-02 4.230569652639139e-02 8.585031577470147e-02 4.762187172833617e-02
250791492.9107589722 1.025801292407738e-01 1.675040621702027e-02 1.098286631781748e-01 3.130775426858209e-02 -2.729343982096860e-01 9.169406685256089e-05 -5.053563736237491e-02 6.515554792538644e-01
            1.098296220629102e-01 3.125465380482220e-02 1.025061965033044e-01 1.664722934656327e-02 -5.047474562497799e-02 6.515618920848909e-01 -2.729435467961046e-01 1.133642097708773e-05
            -2.729936106801230e-01 1.399770521664335e-05 -5.042525225345308e-02 6.516298019130521e-01 9.949746499420863e-02 4.250001905957679e-02 1.031826462215159e-01 3.741562002009358e-02
            -5.045691249363490e-02 6.515726574308699e-01 -2.729326117654457e-01 2.681461523816995e-05 1.031472093383085e-01 3.738356287538486e-02 9.951660203879563e-02 4.250902944015098e-02
251291075.8965804875 1.115266197479695e-01 6.725663266165912e-03 1.185794776041382e-01 2.061237688503062e-02 -2.687180088478294e-01 4.094853824109784e-02 5.100810560218177e-02 6.503467700835729e-01
            1.185355417274571e-01 2.067136399723917e-02 1.115119654498530e-01 6.762585002913437e-03 5.103831791741630e-02 6.503886005393510e-01 -2.687731878128840e-01 4.093700452436438e-02
            -2.687692342536905e-01 4.088881971500594e-02 5.106070802818630e-02 6.504562197090522e-01 1.107393108126403e-01 3.358254972558532e-02 1.128770035875694e-01 2.923438208639732e-02
            5.099841805851361e-02 6.504421839021053e-01 -2.686714826945951e-01 4.094217051368990e-02 1.128697712208336e-01 2.919075774143556e-02 1.107427200146484e-01 3.347887854339284e-02
251790658.8824020028 1.170668054253663e-01 -5.537749185569429e-03 1.235591391222072e-01 7.859193530843708e-03 -2.586912750667533e-01 8.085935012404179e-02 1.504626960383936e-01 6.338954139351546e-01
            1.234825708109970e-01 7.785943525270751e-03 1.170396078159453e-01 -5.548611668051238e-03 1.505725769144876e-01 6.338397718086323e-01 -2.587459323152350e-01 8.090609441057144e-02
            -2.588153927101290e-01 8.090073651221662e-02 1.504942166056030e-01 6.339076147720375e-01 1.187339354343173e-01 2.159740152069707e-02 1.195144941410823e-01 1.874515508902833e-02
            1.505924921969860e-01 6.338643627164857e-01 -2.587259919325707e-01 8.081332219117052e-02 1.196113515213444e-01 1.872069909167319e-02 1.186618643182640e-01 2.164723499350532e-02
252290241.8682235181 1.185819148955209e-01 -1.893986991487888e-02 1.243340910469851e-01 -5.883277789968113e-03 -2.430670469634648e-01 1.192754398551933e-01 2.461305238381400e-01 6.027278123875115e-01
            1.243528217932282e-01 -5.895716001428036e-03 1.185669344870455e-01 -1.896261577469039e-02 2.460127698981385e-01 6.026965722610629e-01 -2.430450060153473e-01 1.192778860297758e-01
            -2.430396526129978e-01 1.191971291197204e-01 2.460457471814139e-01 6.027691479588517e-01 1.226108118202533e-01 7.870427531611652e-03 1.227615975378360e-01 6.645990970209443e-03
            2.459910380039430e-01 6.026212942491277e-01 -2.429962003295949e-01 1.192800536098514e-01 1.227189638230768e-01 6.675282597060105e-03 1.226503120723435e-01 7.955856977306346e-03
252789824.8540450335 1.160321685946622e-01 -3.228630532406059e-02 1.208792369957644e-01 -1.932785930374131e-02 -2.216463120463907e-01 1.552657660276788e-01 3.354446853288676e-01 5.577564765233596e-01
            1.208940195178605e-01 -1.922256692179737e-02 1.160575132024367e-01 -3.232265417335915e-02 3.354710960767983e-01 5.577995900604406e-01 -2.216348746472000e-01 1.552714453604912e-01
            -2.216253670277901e-01 1.552272674950722e-01 3.354859173199772e-01 5.577722260422131e-01 1.221780650703994e-01 -6.220395279268462e-03 1.221453292796988e-01 -5.527231264859198e-03
            3.355169241781730e-01 5.576818701449326e-01 -2.216599819329445e-01 1.552255925785055e-01 1.220827655228783e-01 -5.595227687197343e-03 1.221211498483307e-01 -6.269778612469293e-03
253289407.8398665488 1.096414003400911e-01 -4.448289910019083e-02 1.134644483728599e-01 -3.105797150038660e-02 -1.947904246978060e-01 1.878935181106493e-01 4.171953747179437e-01 5.001089250626930e-01
            1.134692176821989e-01 -3.109154416583343e-02 1.095731913823596e-01 -4.444299338787538e-02 4.173019291128588e-01 5.000858496729084e-01 -1.947538532765630e-01 1.878836409918202e-01
            -1.947632017049152e-01 1.878920207256425e-01 4.173272448855856e-01 5.001277151831266e-01 1.174620665416233e-01 -1.962089730599319e-02 1.178163102065728e-01 -1.704237850340522e-02
            4.173230169121035e-01 5.000954865983438e-01 -1.947755984851589e-01 1.879445489115519e-01 1.178652054649125e-01 -1.712122134193653e-02 1.174138454916605e-01 -1.967112517954900e-02
253788990.8256880641 9.976702538208035e-02 -5.419126611455854e-02 1.027712574304168e-01 -4.013740847296318e-02 -1.626588099228099e-01 2.161428618864296e-01 4.897497447385834e-01 4.307766649700321e-01
            1.027689220007730e-01 -4.017790755479110e-02 9.980502592393020e-02 -5.422686789572672e-02 4.897708128040789e-01 4.307217286185763e-01 -1.626820295929484e-01 2.161897485963636e-01
            -1.626127123171555e-01 2.161981525152759e-01 4.897764711326350e-01 4.307928832185896e-01 1.087744974747863e-01 -3.103944695723648e-02 1.102964180849089e-01 -2.662027869638016e-02
            4.897651685296939e-01 4.307454328987980e-01 -1.626141873095615e-01 2.161968186532678e-01 1.103811643175281e-01 -2.661633241538135e-02 1.088359302114944e-01 -3.096507772738479e-02
254288573.8115096092 8.736877619517418e-02 -6.072842965940347e-02 8.965360936183668e-02 -4.556713931673004e-02 -1.259545454438249e-01 2.391867026451749e-01 5.513521106630204e-01 3.510031961318066e-01
            8.967826233852404e-02 -4.560407657990829e-02 8.744879837487150e-02 -6.060616361687449e-02 5.513091083753414e-01 3.509802252463344e-01 -1.259915473425270e-01 2.392309724332814e-01
            -1.259863924851111e-01 2.391743765858442e-01 5.512882275162845e-01 3.510275993966576e-01 9.710866210744161e-02 -3.933069237790622e-02 1.002640096069689e-01 -3.349003845353008e-02
            5.513465973956185e-01 3.510249502101511e-01 -1.260441284994240e-01 2.391347171376294e-01 1.003358503568385e-01 -3.351329680775102e-02 9.715616527720168e-02 -3.923131272974649e-02
254788156.7973311245 7.359769056916193e-02 -6.319804266482726e-02 7.541940113119588e-02 -4.682722555976710e-02 -8.576000752443577e-02 2.557985248654148e-01 6.005178350839555e-01 2.625185938774370e-01
            7.533960322500577e-02 -4.686241503717749e-02 7.360624777054030e-02 -6.320275989947748e-02 6.004232314278928e-01 2.624278731164303e-01 -8.565570094638890e-02 2.557594050466516e-01
            -8.576453243649219e-02 2.558354286202911e-01 6.004574726964328e-01 2.623882065005232e-01 8.330460801940233e-02 -4.359793933060854e-02 8.862107498185583e-02 -3.691724256118224e-02
            6.004252833982455e-01 2.623778351128190e-01 -8.571172960049975e-02 2.558055408456128e-01 8.858912016969667e-02 -3.688020281354188e-02 8.328738428448629e-02 -4.356767134800258e-02
255287739.7831526399 5.969272926187213e-02 -6.145609129174266e-02 6.129819551154467e-02 -4.357559186495705e-02 -4.299453333625775e-02 2.653534725225004e-01 6.357135945108311e-01 1.667050054100518e-01
            6.127736372405214e-02 -4.353173837746518e-02 5.967962874308349e-02 -6.142077806974648e-02 6.357520796876844e-01 1.666603377838475e-01 -4.304910776643441e-02 2.653367940587710e-01
            -4.300892423660498e-02 2.653321160337777e-01 6.357546680678557e-01 1.666742513139762e-01 6.868155488372257e-02 -4.345859768921400e-02 7.644534731502894e-02 -3.651214028626477e-02
            6.357114759352204e-01 1.666648694073914e-01 -4.298002409970988e-02 2.653766169601618e-01 7.642174161899870e-02 -3.649632578569662e-02 6.874277240802383e-02 -4.352790499588718e-02
255787322.7689741552 4.691583076237758e-02 -5.562535574260812e-02 4.871440826541152e-02 -3.604055104729065e-02 6.570879543244595e-04 2.673607317883974e-01 6.559392039867930e-01 6.589827953093923e-02
            4.875466677035608e-02 -3.611829913671107e-02 4.692295293323423e-02 -5.556123310264163e-02 6.559241225144444e-01 6.583890848187533e-02 6.573146032947470e-04 2.673930695940504e-01
            5.847658144300799e-04 2.673723230550556e-01 6.558929175677328e-01 6.588930234612603e-02 5.478664025151919e-02 -3.886372088011721e-02 6.504463905842019e-02 -3.239726333300804e-02
            6.559252356291094e-01 6.589328770958140e-02 6.899146227297776e-04 2.673954705457458e-01 6.500359682613598e-02 -3.241924084396463e-02 5.482110419146839e-02 -3.889268005175898e-02
256286905.7547956705 3.665096688748170e-02 -4.618373133462360e-02 3.916134451542121e-02 -2.497470038158688e-02 4.372399849290241e-02 2.618130183155149e-01 6.601337419415474e-01 -3.776182619942874e-02
            3.917468551603428e-02 -2.508293949006823e-02 3.669963333080790e-02 -4.612135004238542e-02 6.601011219775551e-01 -3.771359399870822e-02 4.375347199463867e-02 2.617879040469365e-01
            4.375673215714306e-02 2.618049592925566e-01 6.600520072637346e-01 -3.774243253972393e-02 4.282345327053806e-02 -3.015432304335952e-02 5.552080155042978e-02 -2.490897985129636e-02
            6.600133037470299e-01 -3.769824899045218e-02 4.364879772302226e-02 2.618271412899998e-01 5.552279456260597e-02 -2.484724187693966e-02 4.285909248973705e-02 -3.011615413432756e-02
256786488.7406171858 2.995472538250517e-02 -3.415088747522289e-02 3.342668940372643e-02 -1.151575074402151e-02 8.467218080814919e-02 2.490257787125992e-01 6.475891475765312e-01 -1.413700240979784e-01
            3.352533708621754e-02 -1.145448655328283e-02 2.995454649672299e-02 -3.413270052697157e-02 6.475976700146704e-01 -1.412841924283758e-01 8.470349979626267e-02 2.490280451880163e-01
            8.469668894455251e-02 2.490711161937199e-01 6.476122804171059e-01 -1.413767417315140e-01 3.414736987168306e-02 -1.816048429573619e-02 4.889101754277261e-02 -1.480443469078880e-02
            6.475940183208670e-01 -1.413814026168655e-01 8.471119577605182e-02 2.490294804717474e-01 4.885036149633219e-02 -1.480998563142596e-02 3.427695595034121e-02 -1.808260203416814e-02
257286071.7264387012 2.755275785723215e-02 -2.084717468907265e-02 3.229113820867732e-02 3.118171912678090e-03 1.223179286963345e-01 2.297211043194226e-01 6.184249766080425e-01 -2.421218306706011e-01
            3.231931081266557e-02 3.101176808179086e-03 2.740537933352972e-02 -2.092607370497238e-02 6.184343631639621e-01 -2.421745864391562e-01 1.222950866122336e-01 2.297057425011358e-01
            1.222445727400562e-01 2.296098150775958e-01 6.184452658974304e-01 -2.421865397044633e-01 2.969254284319124e-02 -4.129460291604264e-03 4.595854362846775e-02 -3.216004808916442e-03
            6.184121312626368e-01 -2.421200173515581e-01 1.222644057095953e-01 2.297323858958124e-01 4.599657802263597e-02 -3.261624089562227e-03 2.977342483611136e-02 -4.162484553010699e-03
257785654.7122602165 2.934754605015186e-02 -7.735654977425854e-03 3.579049034442025e-02 1.720751251690077e-02 1.553929776512142e-01 2.048461248261359e-01 5.731369892547428e-01 -3.372173930363404e-01
            3.580524045228195e-02 1.718997630456725e-02 2.929405970916547e-02 -7.784828083360407e-03 5.731321610430276e-01 -3.372617266743597e-01 1.554197981355827e-01 2.048717352114418e-01
            1.553571131885889e-01 2.048691448777107e-01 5.731475626416447e-01 -3.371990422538078e-01 2.978559825836572e-02 1.045572262581693e-02 4.685474121731945e-02 8.475137020173162e-03
            5.731131682962242e-01 -3.371602398465413e-01 1.554030734202363e-01 2.048786643024917e-01 4.674503809996241e-02 8.501109073629583e-03 2.980898138370447e-02 1.043822463444359e-02
258285237.6980817318 3.519576890580427e-02 3.714299697452250e-03 4.355409617687531e-02 2.936510297236967e-02 1.834558978807977e-01 1.757066892755135e-01 5.129530080863878e-01 -4.238282661491941e-01
            4.355995493895113e-02 2.932524028212571e-02 3.519860543611515e-02 3.726060248379606e-03 5.128926534688537e-01 -4.237364835451574e-01 1.833732002967778e-01 1.757490476193577e-01
            1.834674830891241e-01 1.757782420320647e-01 5.129228918435624e-01 -4.237276231816250e-01 3.426014836440835e-02 2.413777694184535e-02 5.123736164732040e-02 1.919519080558996e-02
            5.128723830098778e-01 -4.237833388969259e-01 1.834764833017108e-01 1.756981954092700e-01 5.122927331523753e-02 1.918890927081648e-02 3.430752265839487e-02 2.423666531010408e-02
258784820.6839032471 4.432490382363407e-02 1.235343908607027e-02 5.452557269726194e-02 3.814591126012656e-02 2.059518276966198e-01 1.432769404121974e-01 4.395759876999570e-01 -4.992259727391354e-01
            5.461366301531043e-02 3.820762557160839e-02 4.426206771028837e-02 1.239565242297958e-02 4.395320634721551e-01 -4.992553836803166e-01 2.059635337872892e-01 1.433451715495279e-01
            2.060074968363677e-01 1.433885920887478e-01 4.394680152929428e-01 -4.992718842682343e-01 4.271113050003923e-02 3.558485368668173e-02 5.884405128115185e-02 2.764901573182184e-02
            4.394723328182227e-01 -4.992703517356002e-01 2.059618298432495e-01 1.433195493561205e-01 5.881436438035424e-02 2.763361529196508e-02 4.272421094291403e-02 3.562287623399625e-02
259284403.6697247624 5.547552429013380e-02 1.733105738446162e-02 6.771605330810788e-02 4.291857239360944e-02 2.230126731462581e-01 1.087592752835589e-01 3.551291785811032e-01 -5.617268129362779e-01
            6.758186379653265e-02 4.290464386140766e-02 5.545610414247947e-02 1.730933591736436e-02 3.551750283128423e-01 -5.617991147293964e-01 2.229891574636190e-01 1.088134561868307e-01
            2.230156917894606e-01 1.086919648341468e-01 3.551834774366908e-01 -5.618231812460668e-01 5.396032481771245e-02 4.373718612946176e-02 6.839699219959741e-02 3.308417907417616e-02
            3.551943824662070e-01 -5.617518169592026e-01 2.230164212794556e-01 1.087267182791190e-01 6.836404138847089e-02 3.312017329677375e-02 5.396729153063481e-02 4.368950754481667e-02
259783986.6555463076 6.745044314860926e-02 1.811452063200968e-02 8.121417878710208e-02 4.320120386116812e-02 2.345709124072357e-01 7.275160807409113e-02 2.623108436793776e-01 -6.098326782028782e-01
            8.128376695182417e-02 4.322317967576461e-02 6.740570816605419e-02 1.818604477704421e-02 2.623266509691354e-01 -6.098379640394661e-01 2.345847278681759e-01 7.286244586612536e-02
            2.345611219840606e-01 7.271192788466688e-02 2.623565370372995e-01 -6.097543410285792e-01 6.695494623416508e-02 4.783987212642778e-02 7.893861777422541e-02 3.507242329932990e-02
            2.623496905153758e-01 -6.099513231156859e-01 2.346277294923715e-01 7.282905069891746e-02 7.893371562855774e-02 3.501543480080319e-02 6.689942883931609e-02 4.785544793392553e-02
260283569.6413678229 7.875949875707433e-02 1.496034297591724e-02 9.394574084846670e-02 3.920293278264013e-02 2.408819888925899e-01 3.605191863488885e-02 1.636311434619756e-01 -6.423898147040223e-01
            9.396816916652512e-02 3.913983285299282e-02 7.870571970081355e-02 1.494315747385292e-02 1.636082062049393e-01 -6.424162373644733e-01 2.408624445771551e-01 3.613861497568380e-02
            2.408109217911057e-01 3.610847918098888e-02 1.635544244098198e-01 -6.424447688434646e-01 8.009377448034208e-02 4.780663713591517e-02 8.923889926555943e-02 3.351479502152421e-02
            1.636259520544437e-01 -6.424332312928031e-01 2.408077148505568e-01 3.604768544631749e-02 8.916929077933244e-02 3.361660129759404e-02 8.016385131863450e-02 4.778227333935517e-02
260783152.6271893382 8.815619413221051e-02 8.103449434413294e-03 1.045886649213048e-01 3.133142314300196e-02 2.418081669764731e-01 -7.666906663340797e-04 6.161030578765284e-02 -6.591566078572340e-01
            1.045299475938660e-01 3.137339049635574e-02 8.816747522143550e-02 8.135699708081824e-03 6.162746169468706e-02 -6.591774553143446e-01 2.418701654014717e-01 -7.258145849948730e-04
            2.419022589948279e-01 -8.110118446948369e-04 6.166599136166866e-02 -6.591851323519899e-01 9.233215996943184e-02 4.373762901673968e-02 9.811640253882137e-02 2.899721911654365e-02
            6.166023319040456e-02 -6.591612611767386e-01 2.418597213331800e-01 -7.728224533143214e-04 9.816164495661570e-02 2.901118692427146e-02 9.237053025527894e-02 4.367518316020665e-02
261282735.6130108535 9.479089828452868e-02 -1.478307007863808e-03 1.119043971574930e-01 2.053876432316128e-02 2.377587891613109e-01 -3.733064633759529e-02 -4.127279239129805e-02 -6.599829849182705e-01
            1.118937637123930e-01 2.063267954793999e-02 9.473760819196610e-02 -1.474458215788722e-03 -4.120736029564473e-02 -6.600118318185051e-01 2.377488361018505e-01 -3.719334108222817e-02
            2.377668685732753e-01 -3.732239992594273e-02 -4.118301676266006e-02 -6.600450505547674e-01 1.024284617422147e-01 3.612371555827380e-02 1.049287885613067e-01 2.196394892768981e-02
            -4.119136347423614e-02 -6.599932256724793e-01 2.377955628942587e-01 -3.732432689092120e-02 1.049167726983097e-01 2.199584644560326e-02 1.024216685529687e-01 3.620199540571143e-02
261782318.5988323689 9.789157175551309e-02 -1.285993184237188e-02 1.153025521279388e-01 8.176306880220561e-03 2.284661142357957e-01 -7.296943966013865e-02 -1.426526365244856e-01 -6.452421103894027e-01
            1.152797554434208e-01 8.098871767088855e-03 9.784132108537465e-02 -1.289863293543242e-02 -1.426065718303486e-01 -6.452225159191988e-01 2.284652164851998e-01 -7.293180125854032e-02
            2.284448023898380e-01 -7.292883707606609e-02 -1.425971520933041e-01 -6.452430044735705e-01 1.094277132464255e-01 2.612694126502532e-02 1.088405709058661e-01 1.338093463033371e-02
            -1.425633867068813e-01 -6.452335981315611e-01 2.284275680744432e-01 -7.291997742230213e-02 1.088668872463159e-01 1.339451137773788e-02 1.094797421624382e-01 2.612349196791747e-02
262281901.5846538842 9.696236566277838e-02 -2.482103732084930e-02 1.144074633705317e-01 -4.742728654549231e-03 2.139123338788546e-01 -1.070334761064976e-01 -2.403006185563716e-01 -6.153957936746486e-01
            1.144581644442735e-01 -4.846521042741193e-03 9.692987659471919e-02 -2.481002095373695e-02 -2.403477036932984e-01 -6.154379246550443e-01 2.140114025829289e-01 -1.070103022716388e-01
            2.138995059157336e-01 -1.070052439072726e-01 -2.402632139748881e-01 -6.154713138025725e-01 1.128448632245788e-01 1.458478581687128e-02 1.096704437280231e-01 4.150265412808634e-03
            -2.403326109362061e-01 -6.154950549845749e-01 2.139186791154867e-01 -1.070261536553304e-01 1.096815419731293e-01 4.130826456654461e-03 1.128521105007897e-01 1.464920229228028e-02
262781484.5704753995 9.206211515868508e-02 -3.616998641766636e-02 1.093600833281837e-01 -1.683932502626146e-02 1.942636735382250e-01 -1.388384641347072e-01 -3.324422031875071e-01 -5.713026222619040e-01
            1.092564084114605e-01 -1.680585325390132e-02 9.219581267755046e-02 -3.611821639083777e-02 -3.324735720137374e-01 -5.713210732165492e-01 1.942576872722012e-01 -1.388365223368726e-01
            1.942675953579159e-01 -1.388072321450619e-01 -3.324582191946325e-01 -5.712811602123270e-01 1.124116536998085e-01 2.714182497055598e-03 1.073460832424671e-01 -4.599378409141069e-03
            -3.324808772816100e-01 -5.713593577158396e-01 1.941955502299016e-01 -1.387800558409471e-01 1.073740642191956e-01 -4.620959816375931e-03 1.124191265684731e-01 2.705686602589003e-03
263281067.5562969148 8.364148752251320e-02 -4.568520001155505e-02 1.004892579918106e-01 -2.652625867927644e-02 1.696006384839417e-01 -1.673417952276855e-01 -4.169048031433694e-01 -5.138552620047172e-01
            1.004348774356418e-01 -2.659156671544831e-02 8.366001504301464e-02 -4.565714525903568e-02 -4.169565281810035e-01 -5.137273482236392e-01 1.696115790071799e-01 -1.673068327618086e-01
            1.696101305950455e-01 -1.673021516428211e-01 -4.168655465171726e-01 -5.138700042287123e-01 1.080736501019121e-01 -8.193538269761845e-03 1.022508402757786e-01 -1.191916134461387e-02
            -4.169935894155757e-01 -5.137646090784040e-01 1.695406255543417e-01 -1.673009693325154e-01 1.022969982927004e-01 -1.192677344506848e-02 1.081227377484350e-01 -8.136422852711012e-03
263780650.5421184301 7.239874420134565e-02 -5.226568035918433e-02 8.853654285129212e-02 -3.310275832887197e-02 1.403734632915367e-01 -1.917246924780397e-01 -4.920846607961962e-01 -4.439423926224932e-01
            8.861184272899504e-02 -3.307965484728268e-02 7.230101132788731e-02 -5.225551974299583e-02 -4.921249922905270e-01 -4.439533243305767e-01 1.404174267910120e-01 -1.916443045488241e-01
            1.404270403772882e-01 -1.917096437285196e-01 -4.920608676428526e-01 -4.439725358605933e-01 1.005512478128846e-01 -1.709031776819562e-02 9.501721629068881e-02 -1.710072354246803e-02
            -4.920169129695553e-01 -4.439809131733363e-01 1.404721859479091e-01 -1.916285165412868e-01 9.501859979200455e-02 -1.711951798937264e-02 1.005421012241967e-01 -1.708875906524957e-02
264280233.5279399455 5.898252597786690e-02 -5.525938530196322e-02 7.478478838610575e-02 -3.539270259944413e-02 1.072984180677449e-01 -2.109401227742023e-01 -5.560941362465864e-01 -3.630631378950898e-01
            7.481580923446285e-02 -3.535840282466393e-02 5.904812792954086e-02 -5.520507323582740e-02 -5.561190795814728e-01 -3.631089846757294e-01 1.074072540530549e-01 -2.110098378241342e-01
            1.073453253665725e-01 -2.109829555452010e-01 -5.561457598290014e-01 -3.631158132971820e-01 9.040898092376171e-02 -2.313498747838991e-02 8.622816049682537e-02 -1.923117037198612e-02
            -5.561064836820493e-01 -3.630890587994285e-01 1.073499365025648e-01 -2.109646035648156e-01 8.622078837814098e-02 -1.932559827689793e-02 9.039766639815465e-02 -2.309920773531435e-02
264779816.5137614608 4.501194703437054e-02 -5.384418792243687e-02 6.067588139502914e-02 -3.307152249525248e-02 7.139163985994658e-02 -2.242892830196234e-01 -6.072406101963242e-01 -2.728559619054741e-01
            6.073366902823515e-02 -3.300508316636103e-02 4.498038174789609e-02 -5.385009593665955e-02 -6.071390444096932e-01 -2.728728724003095e-01 7.142369953242540e-02 -2.242760723538798e-01
            7.141448113173479e-02 -2.243440428402680e-01 -6.071065428782374e-01 -2.728459336411875e-01 7.881233745950882e-02 -2.531637503683202e-02 7.718052109012970e-02 -1.824613492184803e-02
            -6.072015189744331e-01 -2.728819245105154e-01 7.145876541949928e-02 -2.242527470733361e-01 7.719200537122088e-02 -1.815571399136083e-02 7.880002341383002e-02 -2.534844241288384e-02
265279399.4995829761 3.166048325506951e-02 -4.820401380119935e-02 4.751389716947235e-02 -2.601428113067815e-02 3.385054379895810e-02 -2.312044099626320e-01 -6.438966864380226e-01 -1.750363262807060e-01
            4.746568648418802e-02 -2.606811181836510e-02 3.167787922841017e-02 -4.824414297313707e-02 -6.439288617906275e-01 -1.751162635025828e-01 3.382425513667729e-02 -2.311963037496020e-01
            3.382174308830000e-02 -2.311532204653075e-01 -6.439319841410373e-01 -1.751175199949517e-01 6.699991246911312e-02 -2.367152957014375e-02 6.884455571253362e-02 -1.384411045129909e-02
            -6.438425181569147e-01 -1.750530818561377e-01 3.378999596260870e-02 -2.311803150743983e-01 6.888499130810097e-02 -1.391826393889876e-02 6.695904782544827e-02 -2.366546611303694e-02
265778982.4854045212 2.040042496473453e-02 -3.854165853407654e-02 3.698101709349153e-02 -1.474101085146415e-02 -3.982074723097154e-03 -2.314116913698111e-01 -6.648160679604115e-01 -7.208068523519241e-02
            3.702268122376851e-02 -1.481391411447937e-02 2.040791499730605e-02 -3.863768708782391e-02 -6.648392298632453e-01 -7.206399044973506e-02 -4.056061470611138e-03 -2.314049890219852e-01
            -3.992516542292785e-03 -2.314065850680203e-01 -6.649672729230633e-01 -7.208184224813398e-02 5.616381140334374e-02 -1.804877043735692e-02 6.251610389656309e-02 -6.696165662578934e-03
            -6.649093628822662e-01 -7.211315671288830e-02 -4.048503501490242e-03 -2.314660430134255e-01 6.248609678010433e-02 -6.727576594985687e-03 5.610932539691324e-02 -1.808399308713042e-02
266278565.4712260365 1.240978897133200e-02 -2.580523281673587e-02 3.024887333931953e-02 -4.089535963687479e-04 -4.082832953964695e-02 -2.251411823154554e-01 -6.691429764681353e-01 3.353262923209057e-02
            3.024618841618063e-02 -2.702920924434533e-04 1.238387523449234e-02 -2.583321408946904e-02 -6.690926339534632e-01 3.352139499377887e-02 -4.086133875344814e-02 -2.251593122504867e-01
            -4.087508757639492e-02 -2.251451775256727e-01 -6.690891634146270e-01 3.356679984333856e-02 4.757188600887389e-02 -9.156626970453177e-03 5.890383086599821e-02 2.742442039790641e-03
            -6.690955644828671e-01 3.351303894221568e-02 -4.084964819620940e-02 -2.251385933269197e-01 5.888025527631581e-02 2.740739552799804e-03 4.769047186215934e-02 -9.204895878841783e-03
266778148.4570475519 8.549413843108327e-03 -1.109863539882785e-02 2.837814310938341e-02 1.585840318244841e-02 -7.539932272595139e-02 -2.128994826987572e-01 -6.561902291921778e-01 1.389082076482268e-01
            2.841513837798594e-02 1.585855367098554e-02 8.562349296476111e-03 -1.101647984812393e-02 -6.561458120949195e-01 1.388806370958622e-01 -7.536613032487822e-02 -2.128672767175069e-01
            -7.544072766392482e-02 -2.129190748451578e-01 -6.561210337325384e-01 1.389651429527373e-01 4.254221281852645e-02 2.167787619686096e-03 5.887120692644345e-02 1.316688317099629e-02
            -6.561734786790216e-01 1.389808605545195e-01 -7.532100573413264e-02 -2.129377696084211e-01 5.882264794769184e-02 1.321721273260692e-02 4.249788758818063e-02 2.072493443737626e-03
267277731.4428690672 9.276766452002960e-03 4.159988448254998e-03 3.174554074396756e-02 3.240410169492889e-02 -1.065456829678414e-01 -1.955557328451816e-01 -6.262743308053690e-01 2.409693528203566e-01
            3.177005413131358e-02 3.234400832998042e-02 9.277086213596462e-03 4.143059872862950e-03 -6.262368386859939e-01 2.410316940611325e-01 -1.065265917154512e-01 -1.955597656113357e-01
            -1.066019397770741e-01 -1.955731743535891e-01 -6.262608538630154e-01 2.411094025485875e-01 4.123153667069659e-02 1.460870772676192e-02 6.252786711289361e-02 2.341113514684181e-02
            -6.262593006596782e-01 2.410806589443620e-01 -1.065826969482920e-01 -1.955120983667341e-01 6.248883788175615e-02 2.342428329332780e-02 4.122561199335105e-02 1.465645057740522e-02
267777314.4286905825 1.456965051131619e-02 1.835244688086847e-02 4.012293581146514e-02 4.730832505514583e-02 -1.338257659668230e-01 -1.739563945714125e-01 -5.801775353234726e-01 3.368830786627046e-01
            4.003645514567027e-02 4.735829354135346e-02 1.456029718869728e-02 1.830463758182074e-02 -5.799968787053125e-01 3.368221858335088e-01 -1.337723315856654e-01 -1.739026924593364e-01
            -1.337605225238945e-01 -1.739282939473169e-01 -5.801204453964601e-01 3.369067662104365e-01 4.393543386396861e-02 2.689387533203310e-02 6.961580606960929e-02 3.217307088085278e-02
            -5.801140146225297e-01 3.368978882168747e-01 -1.338438672807716e-01 -1.739480308436118e-01 6.968099782037288e-02 3.223958928073194e-02 4.386998887597711e-02 2.696509711809601e-02
268276897.4145120978 2.368070353663285e-02 3.014448967813248e-02 5.280902069468534e-02 5.936916658919999e-02 -1.566360031004765e-01 -1.491738879636292e-01 -5.191566375787864e-01 4.237518049980192e-01
            5.275352351384030e-02 5.928223400126713e-02 2.359020340534370e-02 3.010532852598719e-02 -5.191308393094528e-01 4.237281841622163e-01 -1.566461566637766e-01 -1.491333207766072e-01
            -1.566298356555578e-01 -1.491489776985935e-01 -5.190896629822283e-01 4.237478145405785e-01 5.039673409787820e-02 3.788826492840408e-02 7.976092994120008e-02 3.840399546382858e-02
            -5.191785115059045e-01 4.237657568660906e-01 -1.566877419782774e-01 -1.491576929753581e-01 7.970428722485641e-02 3.832884043101471e-02 5.037391328656789e-02 3.787190205516176e-02
268776480.4003336430 3.559756347515180e-02 3.835722641964152e-02 6.868833051367114e-02 6.708465270208230e-02 -1.750745424387659e-01 -1.220389987103257e-01 -4.452908374099296e-01 4.993495372681838e-01
            6.864069118714031e-02 6.706675699976419e-02 3.555906592956874e-02 3.841576157226565e-02 -4.453235972113411e-01 4.993230904039193e-01 -1.750757696236156e-01 -1.219617217359906e-01
            -1.750958136051302e-01 -1.220140999603755e-01 -4.453306991876054e-01 4.993289142403465e-01 5.989520154163541e-02 4.615203562862147e-02 9.162059908217760e-02 4.116650251025548e-02
            -4.453835061630205e-01 4.992897569418350e-01 -1.751285428647743e-01 -1.220477755697983e-01 9.166622862513406e-02 4.111664827998149e-02 5.985390721785889e-02 4.619877031558053e-02
269276063.3861551285 4.903894815849487e-02 4.258141944236880e-02 8.614570387055562e-02 6.984875253132392e-02 -1.891997107765576e-01 -9.335867450158027e-02 -3.609170618997957e-01 5.618274898031440e-01
            8.619996077713886e-02 6.992882905595198e-02 4.905144070092855e-02 4.261260323370283e-02 -3.609047736780151e-01 5.617644992122923e-01 -1.892031705537678e-01 -9.328286220121555e-02
            -1.891900067327107e-01 -9.333057441043233e-02 -3.608996304005097e-01 5.618616579038685e-01 7.127230663190529e-02 5.125156631447120e-02 1.041493924254115e-01 3.990499958632904e-02
            -3.608820153507817e-01 5.617596254943880e-01 -1.891879469667389e-01 -9.331943992276794e-02 1.041252705377778e-01 3.993727647111505e-02 7.124381142839628e-02 5.123384295081124e-02
269775646.3719766736 6.280261388738966e-02 4.245522950519314e-02 1.037561847676662e-01 6.752377963930087e-02 -1.991186133663500e-01 -6.342928173063390e-02 -2.682271053151392e-01 6.098241602887088e-01
            1.038187332380488e-01 6.753208585581476e-02 6.277907706678122e-02 4.242838877895445e-02 -2.683420667140880e-01 6.098088559719187e-01 -1.991359379077475e-01 -6.345365660924002e-02
            -1.991510719728854e-01 -6.347154387061321e-02 -2.683329729909009e-01 6.098380833093722e-01 8.361281423572021e-02 5.269672651556510e-02 1.161119350231165e-01 3.476372043797518e-02
            -2.682901862499718e-01 6.097800021659194e-01 -1.991876626421710e-01 -6.345302085831937e-02 1.160842039948925e-01 3.480156220801543e-02 8.355285352941928e-02 5.263064792072950e-02
270275229.3577981591 7.538844996659556e-02 3.826642788354550e-02 1.199742123559618e-01 6.019344709496420e-02 -2.048887873499570e-01 -3.284983469826370e-02 -1.701534767826021e-01 6.426637710323504e-01
            1.199732105219540e-01 6.008512727811156e-02 7.538103850424317e-02 3.833606365284249e-02 -1.700852153177782e-01 6.427284329192124e-01 -2.048733215930423e-01 -3.285443374053371e-02
            -2.049115114825912e-01 -3.285013950882325e-02 -1.700448893211801e-01 6.426836554839208e-01 9.564711730587841e-02 5.039062254146206e-02 1.261528381634614e-01 2.606828420561852e-02
            -1.701565375710242e-01 6.426518914461479e-01 -2.047830967599677e-01 -3.295850957262564e-02 1.262300142892832e-01 2.605889604101272e-02 9.561278152501566e-02 5.034799220976296e-02
270774812.3436197042 8.565291365764030e-02 3.073978577654251e-02 1.334385596605790e-01 4.859590058445211e-02 -2.064572971421118e-01 -1.936307350613256e-03 -6.871386166920973e-02 6.599559588923779e-01
            1.332748368142335e-01 4.857554457148332e-02 8.577325655761502e-02 3.066914294843773e-02 -6.871312666147848e-02 6.599569698444920e-01 -2.064953142652988e-01 -1.941575468851313e-03
            -2.064733928192607e-01 -1.997098247844688e-03 -6.864320242029052e-02 6.600232293998602e-01 1.061855435297697e-01 4.475502751728923e-02 1.334411067388596e-01 1.460394093399449e-02
            -6.867523867428602e-02 6.599489514607225e-01 -2.065060658544337e-01 -1.990914536320635e-03 1.334373145041300e-01 1.445412969455389e-02 1.061863013956493e-01 4.461096777608237e-02
271274395.3294411898 9.291075591475138e-02 2.060331353196961e-02 1.429026230698915e-01 3.378643209878629e-02 -2.039369348511819e-01 2.914610029107054e-02 3.358804597061833e-02 6.617590796272711e-01
            1.428634438216058e-01 3.380000823175727e-02 9.294590135214534e-02 2.047206827653145e-02 3.355220608564841e-02 6.618167312545689e-01 -2.037993429685779e-01 2.908988371283889e-02
            -2.038696140267069e-01 2.914130657997115e-02 3.361181724429130e-02 6.617373442587566e-01 1.144557400864221e-01 3.623696630668100e-02 1.370527403705318e-01 1.014173852711394e-03
            3.367823399216472e-02 6.617938338160160e-01 -2.038740500748888e-01 2.907383650269084e-02 1.370089967686564e-01 1.076926372159730e-03 1.145405551899251e-01 3.630390738310516e-02
271773978.3152627349 9.648003616370218e-02 8.917548135994369e-03 1.478415680012855e-01 1.701690437635595e-02 -1.968262105599693e-01 5.976437615476191e-02 1.347028239652268e-01 6.482955150341625e-01
            1.477637199873246e-01 1.709238541095817e-02 9.646341294407894e-02 8.881143987989044e-03 1.346149862769158e-01 6.483492962573741e-01 -1.968075059801253e-01 5.972136171492554e-02
            -1.967745875485852e-01 5.979324918562584e-02 1.346741809146061e-01 6.483493391372965e-01 1.198611463898814e-01 2.598402157908361e-02 1.367585445547692e-01 -1.320096656688849e-02
            1.346155497559463e-01 6.483010255450435e-01 -1.968161133786735e-01 5.966625746200862e-02 1.366769637815262e-01 -1.328183586448625e-02 1.198535835447539e-01 2.590310972306049e-02
272273561.3010842204 9.593737701847802e-02 -3.073916859709751e-03 1.478373812066646e-01 -2.164475982943695e-04 -1.852072937857695e-01 8.943273242960909e-02 2.324085824156000e-01 6.200511157547398e-01
            1.478041370941128e-01 -3.038321021396183e-04 9.590238838822869e-02 -3.061368688010933e-03 2.322952798863103e-01 6.200408059297025e-01 -1.852209215358679e-01 8.937342938492231e-02
            -1.852463976516601e-01 8.945471879936071e-02 2.323151445867530e-01 6.200629691235371e-01 1.217228900904623e-01 1.469734022198641e-02 1.322692923514806e-01 -2.699882008189466e-02
            2.323700810327116e-01 6.200121192865908e-01 -1.852061285788459e-01 8.933414004221533e-02 1.321308366365029e-01 -2.706123088926915e-02 1.217394923754131e-01 1.464758215160952e-02
272773144.2869057655 9.167966417026065e-02 -1.410701737850393e-02 1.429665194019888e-01 -1.684511471108480e-02 -1.687997058496820e-01 1.173011104097869e-01 3.248832008538404e-01 5.774987279327333e-01
            1.429847143977219e-01 -1.669746899220793e-02 9.161384525878774e-02 -1.418121852126898e-02 3.248634985766192e-01 5.775071654678215e-01 -1.688487852401060e-01 1.173377853010682e-01
            -1.688621726493078e-01 1.172962177386951e-01 3.248713503416866e-01 5.775073939929329e-01 1.202164917075377e-01 3.525817624598011e-03 1.238355421687316e-01 -3.924239230902778e-02
            3.248084362857577e-01 5.775457368561450e-01 -1.688101496174833e-01 1.173295999862123e-01 1.238289957688935e-01 -3.922460853263941e-02 1.201537259002072e-01 3.492313166963037e-03
273272727.2727272511 8.388313695011164e-02 -2.317069657642479e-02 1.336506988529725e-01 -3.096197863085031e-02 -1.478219282716358e-01 1.427060895266984e-01 4.101923831360275e-01 5.216635455418235e-01
            1.336557943257379e-01 -3.104448738327198e-02 8.380546539835787e-02 -2.317403435358571e-02 4.102832140452658e-01 5.216469619213104e-01 -1.478753563331979e-01 1.426265668756854e-01
            -1.478371753139839e-01 1.427174657920831e-01 4.102862570529501e-01 5.216068777621400e-01 1.152053490065043e-01 -6.407230032544420e-03 1.121169073956929e-01 -4.876949479629570e-02
            4.102986120111618e-01 5.216838855510301e-01 -1.478495783357680e-01 1.426057198673019e-01 1.119774854106577e-01 -4.875726806630067e-02 1.152397509929994e-01 -6.426419162241509e-03
273772310.2585487962 7.324843951149392e-02 -2.912746772668137e-02 1.206279471626215e-01 -4.167065008813917e-02 -1.227052699192485e-01 1.644070319888927e-01 4.867076595931337e-01 4.532346770511429e-01
            1.206341033009477e-01 -4.180650576411863e-02 7.337571245011448e-02 -2.907709498900564e-02 4.867837695247061e-01 4.532946102381765e-01 -1.226465961947870e-01 1.642902725852038e-01
            -1.226991416582216e-01 1.643342892594171e-01 4.867331512233683e-01 4.532780189812222e-01 1.074182491062140e-01 -1.422716165680511e-02 9.793880788584315e-02 -5.451991048690045e-02
            4.867384677660447e-01 4.532562183815977e-01 -1.227118989475608e-01 1.643401400769672e-01 9.791450599189502e-02 -5.468980951963277e-02 1.074254860072132e-01 -1.422577852033199e-02
274271893.2443703413 6.120843125812468e-02 -3.135044495120672e-02 1.051237572640843e-01 -4.813672177367957e-02 -9.385527853350699e-02 1.816080378852378e-01 5.523790236235966e-01 3.735985434857274e-01
            1.050766006354067e-01 -4.806172303268056e-02 6.119290254408456e-02 -3.134923701172715e-02 5.523928938377376e-01 3.734749547242795e-01 -9.392591183557829e-02 1.814877447044134e-01
            -9.386467977441137e-02 1.815694968766436e-01 5.524006676422679e-01 3.735594188648176e-01 9.767868151754543e-02 -1.904516425136479e-02 8.240375093055471e-02 -5.610840697836108e-02
            5.524220511852296e-01 3.735719686205518e-01 -9.389880512792956e-02 1.814549385868942e-01 8.239269414033409e-02 -5.603419480327327e-02 9.770252286202462e-02 -1.907365773713453e-02
274771476.2301918268 4.868225366844685e-02 -2.936317198106705e-02 8.855039898695491e-02 -4.941882236547974e-02 -6.240532918288563e-02 1.932956125164494e-01 6.056478750682774e-01 2.840800868240954e-01
            8.855168368231738e-02 -4.943977464330487e-02 4.865334493570726e-02 -2.932683462913207e-02 6.055152113609402e-01 2.840340832282339e-01 -6.242864540121952e-02 1.933147899437303e-01
            -6.235284168993108e-02 1.933244665508313e-01 6.054872755434998e-01 2.840888543213098e-01 8.675720389680246e-02 -2.023223367162160e-02 6.687065914080656e-02 -5.302007648994930e-02
            6.055361980610134e-01 2.840334209512792e-01 -6.241601184062447e-02 1.932990608845277e-01 6.685612509657687e-02 -5.298905622821768e-02 8.675808830505635e-02 -2.024685595792670e-02
275271059.2160133719 3.696780320853493e-02 -2.314005704623318e-02 7.265113202240452e-02 -4.555396292684477e-02 -2.942086108094739e-02 1.991875871489516e-01 6.443145462575910e-01 1.865479035683706e-01
            7.265791016733257e-02 -4.552332574653402e-02 3.703288073020888e-02 -2.310408425105861e-02 6.443711437629792e-01 1.864944368551020e-01 -2.945263864151261e-02 1.992223747140059e-01
            -2.946770759351951e-02 1.992246448870517e-01 6.442793996846835e-01 1.864499530816174e-01 7.614323851173078e-02 -1.768429594471277e-02 5.274619238320038e-02 -4.532291663756158e-02
            6.443499220890821e-01 1.865374754462160e-01 -2.948607937142365e-02 1.992513632889568e-01 5.282008210848115e-02 -4.538719364380878e-02 7.611983944305994e-02 -1.762444371438585e-02
275770642.2018348575 2.798634444319402e-02 -1.310896805454697e-02 5.885155897465724e-02 -3.694974779924856e-02 3.690737068227573e-03 1.990317420827729e-01 6.673624482048511e-01 8.324698373441251e-02
            5.875907587850429e-02 -3.701949952988436e-02 2.790341263150434e-02 -1.308253122374607e-02 6.673223446598672e-01 8.327055384407361e-02 3.681048997715495e-03 1.990912783236779e-01
            3.793204010563269e-03 1.991125331421449e-01 6.673302090761295e-01 8.321792598860275e-02 6.698348439922540e-02 -1.157291250931971e-02 4.153026202824425e-02 -3.380048467599071e-02
            6.673607878732690e-01 8.320262045389272e-02 3.703199752724669e-03 1.991164889222321e-01 4.148218710851831e-02 -3.379822095388674e-02 6.703347820587659e-02 -1.157297547224725e-02
276270225.1876564026 2.229906220842517e-02 -2.203621895582877e-04 4.869572536106288e-02 -2.447366368096742e-02 3.560572564213815e-02 1.930589784788755e-01 6.735700132671590e-01 -2.312640875247618e-02
            4.860951669143001e-02 -2.458099617871479e-02 2.232064916281640e-02 -2.629095096640012e-04 6.735648226436662e-01 -2.306526328046576e-02 3.564559660275115e-02 1.930891679677552e-01
            3.568050015144655e-02 1.930495286318505e-01 6.735829703236774e-01 -2.308752689516522e-02 6.038413669018907e-02 -2.722640941739409e-03 3.428755245194642e-02 -1.920970660103350e-02
            6.736159894556044e-01 -2.303578417480651e-02 3.568521013072309e-02 1.931951043946612e-01 3.424805491294343e-02 -1.924342530452116e-02 6.037372647869232e-02 -2.766274099361510e-03
276769808.1734778881 2.095761263843957e-02 1.419072865867244e-02 4.312639516679714e-02 -9.663285343812689e-03 6.521630959420233e-02 1.818333688396258e-01 6.624075970817513e-01 -1.295292546806391e-01
            4.310979196514165e-02 -9.671576901479939e-03 2.093730707482109e-02 1.411859169046097e-02 6.623752017106342e-01 -1.294389280253175e-01 6.541918219922503e-02 1.818177162671073e-01
            6.528422118406067e-02 1.817983111190052e-01 6.623649024051673e-01 -1.294860698576656e-01 5.727292577114413e-02 8.148916277221573e-03 3.165018993390107e-02 -3.169508978964042e-03
            6.624322955259044e-01 -1.295201210980760e-01 6.529670083612323e-02 1.819132956057779e-01 3.171176698686536e-02 -3.147637478483574e-03 5.728843243659004e-02 8.052474981999114e-03
277269391.1592994332 2.444318813121249e-02 2.857558330874409e-02 4.280674120522803e-02 5.962482749250242e-03 9.167280138945359e-02 1.662475232597884e-01 6.337853304992689e-01 -2.328591862192877e-01
            4.278575972831875e-02 5.940754759713894e-03 2.442063459339579e-02 2.861127148917453e-02 6.338166728856547e-01 -2.328938428405284e-01 9.173637627163717e-02 1.662287889968318e-01
            9.176115658376317e-02 1.661350390194934e-01 6.338951234579401e-01 -2.329242884864391e-01 5.806373090988557e-02 1.937455941208380e-02 3.427276075034721e-02 1.293884225661676e-02
            6.338812978202414e-01 -2.329061241241195e-01 9.170362037792197e-02 1.662086874977156e-01 3.418000210761003e-02 1.290906776562152e-02 5.793765756930263e-02 1.937051797671843e-02
277768974.1451209188 3.232651195904368e-02 4.147513865431680e-02 4.753991370532216e-02 2.070006075543730e-02 1.145120358919978e-01 1.471985105644638e-01 5.887432286139043e-01 -3.301908571276343e-01
            4.755659372349718e-02 2.072823303049402e-02 3.232263503883902e-02 4.148140933381834e-02 5.887701890945992e-01 -3.301904165630699e-01 1.143596151030123e-01 1.472130575784807e-01
            1.145293697420953e-01 1.471888335361451e-01 5.887825583955869e-01 -3.302277146060965e-01 6.253423500015490e-02 2.992304927873064e-02 4.150636542155543e-02 2.730277420899375e-02
            5.887153981115588e-01 -3.302521938798938e-01 1.144669464134328e-01 1.471924632511311e-01 4.151950737916976e-02 2.736490632639190e-02 6.257258992672457e-02 2.989394034754108e-02
278268557.1309424639 4.400663215582584e-02 5.136191648633436e-02 5.676517832793330e-02 3.292478581297521e-02 1.331982634856406e-01 1.257625385617332e-01 5.285791386410438e-01 -4.186157079771000e-01
            5.667507796286166e-02 3.292157548154016e-02 4.403775451428300e-02 5.134873367818375e-02 5.285350597962833e-01 -4.185907097190112e-01 1.332681805395782e-01 1.257454435623793e-01
            1.331822523682438e-01 1.256875920468041e-01 5.286025355740805e-01 -4.186406434226585e-01 7.038346061876716e-02 3.837646826368747e-02 5.273755592329216e-02 3.872941832956858e-02
            5.286293886642861e-01 -4.185804573374519e-01 1.332489967925153e-01 1.257121725047521e-01 5.278293573299163e-02 3.872254438529486e-02 7.041993176926881e-02 3.834057463373194e-02
278768140.1167639494 5.814811738310222e-02 5.726644507060870e-02 6.922510123197308e-02 4.136278264794201e-02 1.481590988119755e-01 1.026723299024826e-01 4.552020572854503e-01 -4.957369876700733e-01
            6.923987478165097e-02 4.140375268620780e-02 5.806400635175901e-02 5.735489456835580e-02 4.552452942454662e-01 -4.957956242998943e-01 1.481815295213072e-01 1.027328198295517e-01
            1.482449874332818e-01 1.026871654634300e-01 4.552920245113423e-01 -4.957518563643381e-01 8.063173135778240e-02 4.386476306638897e-02 6.686684581739791e-02 4.604538336929612e-02
            4.552329894684765e-01 -4.957267799542056e-01 1.482178686336711e-01 1.026322578184288e-01 6.682684458755735e-02 4.603128916944254e-02 8.064125350462642e-02 4.386506543180394e-02
279267723.1025854945 7.329036889428164e-02 5.875913667113211e-02 8.371157350436736e-02 4.531421433059116e-02 1.596128419702160e-01 7.851179516513486e-02 3.709849008128474e-01 -5.597118388451708e-01
            8.372723573755178e-02 4.535291217326291e-02 7.331939935077313e-02 5.884237488417336e-02 3.710648222449491e-01 -5.596223025073950e-01 1.595814975102731e-01 7.852594414246981e-02
            1.594991142449601e-01 7.850617264898538e-02 3.710231963460770e-01 -5.597316351298849e-01 9.220120344301831e-02 4.592315837375644e-02 8.227231623200733e-02 4.864518162910240e-02
            3.711114806614418e-01 -5.596979681415558e-01 1.595858337512689e-01 7.857572331189196e-02 8.230685832148776e-02 4.872182459126617e-02 9.224372095412335e-02 4.596638693736788e-02
279767306.0884070396 8.827043278455970e-02 5.568989002376407e-02 9.855737114396637e-02 4.447429469731229e-02 1.675152280224375e-01 5.369685099966759e-02 2.786072584833274e-01 -6.092108933376045e-01
            9.862577344464817e-02 4.445902046276466e-02 8.831768379429041e-02 5.564491065012503e-02 2.785626701610301e-01 -6.092237234055577e-01 1.674751442617681e-01 5.368719757744619e-02
            1.675525170894746e-01 5.363327606137312e-02 2.786209043352685e-01 -6.092273514354093e-01 1.038054680292952e-01 4.423165987348845e-02 9.761109726537381e-02 4.650078061529155e-02
            2.786025959364481e-01 -6.092118716392040e-01 1.674707041296843e-01 5.363299847231261e-02 9.753954413994122e-02 4.649515312601238e-02 1.039153884664032e-01 4.417626578095907e-02
280266889.0742285252 1.015937017966601e-01 4.838682651038977e-02 1.123267076175981e-01 3.899313824221060e-02 1.722309854130765e-01 2.831247648523694e-02 1.803274861239771e-01 -6.435853768700380e-01
            1.123644358848912e-01 3.901978249778207e-02 1.016439383828041e-01 4.842201012756489e-02 1.802235780381895e-01 -6.435533401006683e-01 1.722866843606167e-01 2.828474666111816e-02
            1.722246316359349e-01 2.832449810916637e-02 1.802403676566688e-01 -6.434936627223822e-01 1.145048378818474e-01 3.909397586669087e-02 1.114109212145702e-01 3.996542164730566e-02
            1.802267001035539e-01 -6.435233133360018e-01 1.722792370402967e-01 2.827867208592852e-02 1.114038283421705e-01 4.000102075011472e-02 1.144217896745184e-01 3.903989998465913e-02
280766472.0600500703 1.120546015931134e-01 3.772227578197575e-02 1.238498931134830e-01 2.967217567526768e-02 1.736828550599427e-01 2.566058962640699e-03 7.850251756930776e-02 -6.623155162627926e-01
            1.238340404930180e-01 2.956648626279951e-02 1.120855906242254e-01 3.767835255345198e-02 7.867263762962429e-02 -6.623035518106336e-01 1.736730748845913e-01 2.553825194883104e-03
            1.736687950095880e-01 2.585850634864816e-03 7.858674598101607e-02 -6.622752093188522e-01 1.231804617397413e-01 3.094172160933096e-02 1.223982167580604e-01 2.969074938356044e-02
            7.861260156822820e-02 -6.623024065996826e-01 1.736441001106109e-01 2.527497426288241e-03 1.224980985001872e-01 2.961409582476289e-02 1.231280721386799e-01 3.092529581488051e-02
281266055.0458715558 1.188571923345730e-01 2.449642803423616e-02 1.319567745609833e-01 1.720419455362254e-02 1.718375262546931e-01 -2.330863476835945e-02 -2.409291502330360e-02 -6.654642611135707e-01
            1.318184334540555e-01 1.720457641458939e-02 1.188448382012918e-01 2.453561324758035e-02 -2.417867810471631e-02 -6.654128968620413e-01 1.718317766428944e-01 -2.331046671142512e-02
            1.717860945103059e-01 -2.327710485158987e-02 -2.412462271794981e-02 -6.654402699287345e-01 1.288823803119349e-01 2.057896996257918e-02 1.299184982192369e-01 1.670986304122238e-02
            -2.411004438893990e-02 -6.654490860358576e-01 1.718027628828893e-01 -2.333346710982623e-02 1.298471786681015e-01 1.667255212725486e-02 1.289709292566008e-01 2.057143473313624e-02
281765638.0316931009 1.215265089581327e-01 1.008778257884085e-02 1.357465524296339e-01 2.973264313352303e-03 1.662004730834611e-01 -4.903386776216231e-02 -1.258215179504489e-01 -6.533685398215073e-01
            1.357170667124823e-01 2.886767976119164e-03 1.215099843746983e-01 1.008058322483422e-02 -1.258524638763903e-01 -6.533407439639357e-01 1.662055933246819e-01 -4.914734558139803e-02
            1.662220088598102e-01 -4.908655718278861e-02 -1.257483936392709e-01 -6.533457042987785e-01 1.315061113819196e-01 8.898518643476214e-03 1.330658008652668e-01 2.196510074939993e-03
            -1.257127986126516e-01 -6.532854896671809e-01 1.662304788323280e-01 -4.900181765880013e-02 1.331230098584128e-01 2.233249080836191e-03 1.314334107515668e-01 8.850696361883195e-03
282265221.0175145864 1.197826604349614e-01 -4.303397100277915e-03 1.351855332688947e-01 -1.216747060500309e-02 1.568050768372612e-01 -7.428418174369540e-02 -2.243688080896406e-01 -6.262615386622797e-01
            1.351357939899214e-01 -1.208640284259684e-02 1.198014975200178e-01 -4.340598400149501e-03 -2.242689255350084e-01 -6.263442654306349e-01 1.567598841978689e-01 -7.426433870831119e-02
            1.567833492315185e-01 -7.424630229130574e-02 -2.242410418260413e-01 -6.263404687967314e-01 1.304699989775969e-01 -3.019630725457107e-03 1.318782760535100e-01 -1.253828077603336e-02
            -2.242994270743970e-01 -6.263141684732995e-01 1.567662254879814e-01 -7.423034133873066e-02 1.319468831650027e-01 -1.253923561171488e-02 1.303872541948831e-01 -2.941148807038974e-03
282764804.0033361316 1.139593925494167e-01 -1.756783195123365e-02 1.301118777415308e-01 -2.632651236320110e-02 1.433283352382406e-01 -9.820612379854032e-02 -3.177346537093927e-01 -5.849760706877379e-01
            1.300957709025843e-01 -2.630430762133620e-02 1.139370932298861e-01 -1.748539083875613e-02 -3.177889851830535e-01 -5.849700636802629e-01 1.432899570141135e-01 -9.814756565160059e-02
            1.433126497970201e-01 -9.817470000924708e-02 -3.178571894876155e-01 -5.850233480487074e-01 1.259781108334184e-01 -1.403887501614968e-02 1.263179263066197e-01 -2.622136322088960e-02
            -3.177622685104687e-01 -5.849822035501446e-01 1.432605479661887e-01 -9.817150243444592e-02 1.263160316287968e-01 -2.617615631764837e-02 1.258630116072795e-01 -1.405545911462500e-02
283264386.9891576171 1.043448261707718e-01 -2.832167324800040e-02 1.209417901580632e-01 -3.841414457499743e-02 1.257378118142205e-01 -1.198870198888418e-01 -4.043156598574668e-01 -5.301116955716824e-01
            1.209421722309217e-01 -3.841496996346479e-02 1.043664370019594e-01 -2.826010378518045e-02 -4.042893017776961e-01 -5.301543339946370e-01 1.257068239100761e-01 -1.198954080442129e-01
            1.257992983643309e-01 -1.199358304883617e-01 -4.042870655260040e-01 -5.301563528017783e-01 1.182452620810081e-01 -2.332737469985563e-02 1.169045060222875e-01 -3.768494110575184e-02
            -4.043088859997500e-01 -5.301159066119303e-01 1.257801429936958e-01 -1.198747901602170e-01 1.169651835808523e-01 -3.764819745433334e-02 1.182758840521734e-01 -2.333500996673500e-02
283763969.9749791622 9.199727325802115e-02 -3.553183875765994e-02 1.085231245909210e-01 -4.743598016265275e-02 1.043099842610806e-01 -1.386163235187516e-01 -4.820266444082709e-01 -4.625307536852032e-01
            1.084921325258996e-01 -4.743221628260165e-02 9.212510324901114e-02 -3.554509540887358e-02 -4.820623379775293e-01 -4.626210699819940e-01 1.042751221700380e-01 -1.386355983107476e-01
            1.043517541851193e-01 -1.386167382381220e-01 -4.820654420944353e-01 -4.625427326579644e-01 1.081810085895427e-01 -2.990805615656141e-02 1.045772701475028e-01 -4.575025363209678e-02
            -4.820688837944530e-01 -4.626149110637611e-01 1.042869338084758e-01 -1.386583639364901e-01 1.045909633996332e-01 -4.570157274195467e-02 1.081146636466498e-01 -2.989289245852811e-02
284263552.9608006477 7.807329059671479e-02 -3.864449169830168e-02 9.374318604913576e-02 -5.220931793546441e-02 7.969391735614803e-02 -1.533941281444582e-01 -5.492220164254360e-01 -3.835743213026103e-01
            9.377291523537737e-02 -5.227667429972122e-02 7.810690325428121e-02 -3.872225207627306e-02 -5.491793900389618e-01 -3.835163504643949e-01 7.974929551486661e-02 -1.534388278248109e-01
            7.966329001847318e-02 -1.534982989126654e-01 -5.492740247104332e-01 -3.835280922303312e-01 9.633330218089610e-02 -3.295840575897527e-02 9.025817928578621e-02 -4.962669395081241e-02
            -5.491943047591340e-01 -3.834841901961012e-01 7.969892298922822e-02 -1.534089783548264e-01 9.029025867662641e-02 -4.967038042743771e-02 9.647098644176669e-02 -3.299588987824428e-02
284763135.9466221929 6.369498260885920e-02 -3.727172116450757e-02 7.813372968999896e-02 -5.241544179228119e-02 5.263447152016745e-02 -1.635726413387266e-01 -6.039002561446249e-01 -2.944051255140800e-01
            7.802847991029417e-02 -5.234142028500999e-02 6.368189398789929e-02 -3.727375007262967e-02 -6.038385090622055e-01 -2.943561951407214e-01 5.265402139964863e-02 -1.636086752833637e-01
            5.268440208051525e-02 -1.635640886188639e-01 -6.038334473666175e-01 -2.943683339287185e-01 8.423506077371454e-02 -3.227491772654445e-02 7.542430785115596e-02 -4.906970230152239e-02
            -6.038833207630128e-01 -2.944763936336621e-01 5.266557852268022e-02 -1.635884438198877e-01 7.544747750031207e-02 -4.913527125687742e-02 8.420345071107631e-02 -3.232041416110909e-02
285262718.9324437380 5.056098940691637e-02 -3.118074043387043e-02 6.307900693568043e-02 -4.757492638593266e-02 2.422913864579683e-02 -1.685362737073046e-01 -6.443711668458750e-01 -1.970293603661284e-01
            6.305325311546019e-02 -4.764692036167360e-02 5.050771911128321e-02 -3.111984362097473e-02 -6.443244033561836e-01 -1.970437826543377e-01 2.426096729188501e-02 -1.684936473394335e-01
            2.425371102365294e-02 -1.684615162319218e-01 -6.442616426067278e-01 -1.970744166181791e-01 7.275458599149016e-02 -2.773732036681962e-02 6.155514264916384e-02 -4.390097271462227e-02
            -6.443112139172460e-01 -1.971047218867522e-01 2.423732312076477e-02 -1.684704507975118e-01 6.150542711874789e-02 -4.387744894706015e-02 7.278088591208239e-02 -2.773670401962001e-02
285762301.9182652235 3.984692044249368e-02 -2.112082312732669e-02 5.020458111211856e-02 -3.846635606546023e-02 -4.214965232718883e-03 -1.679953466044880e-01 -6.689359550721904e-01 -9.371669228884834e-02
            5.018882393006476e-02 -3.845897402321243e-02 3.989084796995458e-02 -2.121244083524139e-02 -6.689226658283721e-01 -9.373993209846394e-02 -4.181545157263114e-03 -1.680206041200424e-01
            -4.214355683550099e-03 -1.679682359835579e-01 -6.689563823729269e-01 -9.367277685299770e-02 6.329511378667597e-02 -1.957645916100739e-02 4.988657270947594e-02 -3.450297001118576e-02
            -6.689407316909033e-01 -9.371345721548316e-02 -4.282458008842585e-03 -1.679469372749230e-01 4.986479340155273e-02 -3.461501250944413e-02 6.324961409697356e-02 -1.960075691219280e-02
286261884.9040867686 3.287607140171982e-02 -8.052463083645987e-03 4.079393013468213e-02 -2.576767065869671e-02 -3.144861299039484e-02 -1.622703459537906e-01 -6.767112587221690e-01 1.303938616822295e-02
            4.082247193800642e-02 -2.569246770455261e-02 3.293279205012330e-02 -8.123677650549581e-03 -6.767910408280439e-01 1.291866252809535e-02 -3.156143767422909e-02 -1.622770430244237e-01
            -3.153535061411749e-02 -1.622574083496011e-01 -6.767773482009438e-01 1.297204021047521e-02 5.699138867054470e-02 -8.736353427256545e-03 4.175130612186842e-02 -2.202926520421978e-02
            -6.767840345505518e-01 1.291557420954668e-02 -3.149813624563760e-02 -1.622514864372609e-01 4.165262775657640e-02 -2.211978975574959e-02 5.696330737159637e-02 -8.778396995918430e-03
286761467.8899082541 3.067545896238691e-02 6.603074499601063e-03 3.588882243462512e-02 -1.081439522529412e-02 -5.658259975346013e-02 -1.520198523634101e-01 -6.670753440942037e-01 1.199057141438220e-01
            3.592976612359194e-02 -1.078342616439081e-02 3.071377659019432e-02 6.650767978181284e-03 -6.671364548762891e-01 1.199924051893121e-01 -5.653682351514153e-02 -1.521068482182165e-01
            -5.655567672410790e-02 -1.520674997501974e-01 -6.670147124569220e-01 1.200116717371940e-01 5.461848545341854e-02 3.587995578923535e-03 3.811874361068331e-02 -7.748129128859228e-03
            -6.670117440125805e-01 1.199568155374438e-01 -5.657272603325972e-02 -1.520592484888712e-01 3.810810253605759e-02 -7.773232501060757e-03 5.456250434158531e-02 3.639846010894154e-03
287261050.8757297993 3.333752412573455e-02 2.146209657193277e-02 3.603741550946910e-02 4.904157009656131e-03 -7.852595407058317e-02 -1.380617848200557e-01 -6.399045600611564e-01 2.242346538561515e-01
            3.604095183427695e-02 4.898292515859000e-03 3.335383546799061e-02 2.131355303260255e-02 -6.399833665127611e-01 2.241825938151501e-01 -7.856238829394581e-02 -1.380809652432648e-01
            -7.874704582885080e-02 -1.380516472374813e-01 -6.399435269935436e-01 2.242497432688451e-01 5.632183639030740e-02 1.606353467996881e-02 3.910058618836749e-02 6.900354223045032e-03
            -6.399130132956253e-01 2.241483421564899e-01 -7.861217996592024e-02 -1.380296571556351e-01 3.918686508037054e-02 6.885881749861504e-03 5.628425420175274e-02 1.608688278147647e-02
287760633.8615512848 4.074549421001895e-02 3.445916128515185e-02 4.101590188451528e-02 1.959868965568084e-02 -9.715273803930295e-02 -1.213057233088525e-01 -5.961699956582972e-01 3.224907088025517e-01
            4.101584393477573e-02 1.956481771990471e-02 4.066042684828476e-02 3.452116560659946e-02 -5.961171074433078e-01 3.226195413160950e-01 -9.720335164927610e-02 -1.213676786200411e-01
            -9.721151550570842e-02 -1.213539627446877e-01 -5.961692442497643e-01 3.225379195921785e-01 6.207908280580660e-02 2.743471947259317e-02 4.473380828246377e-02 2.036583174363652e-02
            -5.961407786321089e-01 3.225720507612241e-01 -9.714915954587366e-02 -1.213132075377134e-01 4.481767148999529e-02 2.027165591895011e-02 6.212958997786231e-02 2.741019651528219e-02
288260216.8473728299 5.182554607916372e-02 4.475380411993808e-02 5.018767306826267e-02 3.165900252234145e-02 -1.122723626566261e-01 -1.028012636350640e-01 -5.370815455050056e-01 4.122273339067344e-01
            5.030693024313194e-02 3.164723663119393e-02 5.183493565251387e-02 4.475055904784666e-02 -5.370677652518242e-01 4.121845504447505e-01 -1.122371080597950e-01 -1.027549242160681e-01
            -1.121496759707298e-01 -1.027795045326003e-01 -5.370980353207251e-01 4.122280346915164e-01 7.130766470548623e-02 3.623597475143410e-02 5.430561599586871e-02 3.098871050190702e-02
            -5.370898721336246e-01 4.121767242009615e-01 -1.122515677335109e-01 -1.027947108260537e-01 5.432989531778362e-02 3.109356966858558e-02 7.127435047479536e-02 3.624668138647576e-02
288759799.8331943154 6.569160428557841e-02 5.087695755036805e-02 6.268865802608205e-02 4.021013840173546e-02 -1.239481276724570e-01 -8.316542864530285e-02 -4.645642450053756e-01 4.906931068874672e-01
            6.275823022022220e-02 4.019762016662423e-02 6.566903493864017e-02 5.082727088882938e-02 -4.645807546965146e-01 4.906693973229203e-01 -1.240164204413554e-01 -8.321005167564120e-02
            -1.239625539080516e-01 -8.310869832275902e-02 -4.646388713692020e-01 4.906101975177526e-01 8.280477906806245e-02 4.159360251897876e-02 6.668927323845161e-02 3.804618849403452e-02
            -4.645887602252842e-01 4.907362806070517e-01 -1.239766315293541e-01 -8.317017951715665e-02 6.657241734855114e-02 3.808690886853467e-02 8.277045903659656e-02 4.164174898057408e-02
289259382.8190158606 8.054755046199401e-02 5.239477688489528e-02 7.689054390909296e-02 4.426585006905167e-02 -1.325666599232752e-01 -6.298662847072088e-02 -3.811605001366782e-01 5.561957007577351e-01
            7.694560143269670e-02 4.429250223501603e-02 8.058973358967399e-02 5.227891328204077e-02 -3.811210191884447e-01 5.561728281496966e-01 -1.326381125872330e-01 -6.288845623806470e-02
            -1.326036394565477e-01 -6.287839759153087e-02 -3.811897324874360e-01 5.561556870706627e-01 9.549008180247227e-02 4.309601426469217e-02 8.037434071931460e-02 4.086452040580010e-02
            -3.811453372476644e-01 5.561498576173558e-01 -1.325970956632201e-01 -6.287935638580749e-02 8.038943739070285e-02 4.080927232524179e-02 9.547172341140904e-02 4.308336012730238e-02
289758965.8048373461 9.530726337501812e-02 4.917548758882970e-02 9.140354910210605e-02 4.373135904729280e-02 -1.385059980051770e-01 -4.230245381357787e-02 -2.891031467625944e-01 6.073294227390587e-01
            9.139893863601140e-02 4.384475165854242e-02 9.530033989938648e-02 4.910254711363473e-02 -2.890759640366650e-01 6.073172860492191e-01 -1.385320386455771e-01 -4.230234798570573e-02
            -1.385010389414901e-01 -4.230798264329255e-02 -2.890296402575057e-01 6.072554021925445e-01 1.079896389831069e-01 4.054413989008830e-02 9.402549185275010e-02 3.912435202020188e-02
            -2.890703327436711e-01 6.073338898051758e-01 -1.383984803341207e-01 -4.230642093744438e-02 9.392757382679542e-02 3.912433633626697e-02 1.079247984533482e-01 4.053989970157748e-02
290258548.7906588912 1.082551774518783e-01 4.172783613946947e-02 1.048341244771205e-01 3.885285324241800e-02 -1.417731016996845e-01 -2.148027295580900e-02 -1.909597927063878e-01 6.433324867261460e-01
            1.048446752589300e-01 3.890430332735949e-02 1.081791260744779e-01 4.174828314791339e-02 -1.909502799632675e-01 6.432881451646277e-01 -1.418268240435538e-01 -2.147803230204545e-02
            -1.417675636569063e-01 -2.151497037412081e-02 -1.909768970544954e-01 6.432910401153534e-01 1.191109338900137e-01 3.441091684263999e-02 1.063370819094542e-01 3.326421241964299e-02
            -1.909001257744547e-01 6.433433697553819e-01 -1.418088026404519e-01 -2.152887403825228e-02 1.064261992988760e-01 3.329491115495883e-02 1.190760795739517e-01 3.440665110602346e-02
290758131.7764803767 1.182760285527300e-01 3.079944127748076e-02 1.158915254005680e-01 3.024614463297460e-02 -1.425731544168136e-01 -4.708679224261688e-04 -8.914864621030776e-02 6.637449814329129e-01
            1.159195966580495e-01 3.024167601117390e-02 1.182157182086493e-01 3.082237183222252e-02 -8.917559420281056e-02 6.637354484799242e-01 -1.425459641227927e-01 -4.741175489420543e-04
            -1.425814030493521e-01 -5.163923302470642e-04 -8.914815245577554e-02 6.636618183421877e-01 1.278379841635866e-01 2.505327179656859e-02 1.162058010233447e-01 2.403113886720095e-02
            -8.909632497327456e-02 6.636876632840480e-01 -1.425270308838201e-01 -5.569945485776836e-04 1.162259748598046e-01 2.399194768876999e-02 1.277392489052978e-01 2.505842808347274e-02
291257714.7623019218 1.245901961662905e-01 1.751839590390426e-02 1.237151907539429e-01 1.872828746362862e-02 -1.406525799130385e-01 2.061432412838029e-02 1.400447976384049e-02 6.685259589815946e-01
            1.237508949336777e-01 1.877520805384808e-02 1.245367162177521e-01 1.758468798920753e-02 1.405076767404791e-02 6.685057142895043e-01 -1.405925934186474e-01 2.066410172608514e-02
            -1.406257731651829e-01 2.062962043092921e-02 1.395517032328312e-02 6.684915975194901e-01 1.333197071828571e-01 1.358802837825934e-02 1.225469776085993e-01 1.220902293578113e-02
            1.392686418934558e-02 6.685176440883779e-01 -1.406009695026187e-01 2.062142269331119e-02 1.225293289039139e-01 1.224207508020037e-02 1.333829783921112e-01 1.358467006990256e-02
291757297.7481234670 1.267556311472456e-01 3.010667451205574e-03 1.276847858964636e-01 5.520341093852051e-03 -1.357423768762665e-01 4.160712304921819e-02 1.163029642408043e-01 6.579717203369174e-01
            1.276881788314201e-01 5.480332085613421e-03 1.267045261325044e-01 2.987230924196175e-03 1.163444564114283e-01 6.579608351951277e-01 -1.357174713254414e-01 4.167042069668042e-02
            -1.358412240581214e-01 4.168243337870470e-02 1.162806072428538e-01 6.579375155085508e-01 1.352055607765451e-01 9.187793494663527e-04 1.250589941868811e-01 -9.916835194133647e-04
            1.163264039723085e-01 6.579125784572837e-01 -1.357817823198725e-01 4.165179923171525e-02 1.250460856539501e-01 -9.905347474105639e-04 1.353014003370308e-01 1.021862055003772e-03
292256880.7339449525 1.244287168851454e-01 -1.142475467888585e-02 1.274352121736335e-01 -8.190650171044049e-03 -1.277337108944862e-01 6.221712139287369e-02 2.157228809488547e-01 6.323240855885510e-01
            1.274205378869832e-01 -8.183901922140855e-03 1.244210694169323e-01 -1.151688476346348e-02 2.157383520245643e-01 6.323809825327547e-01 -1.276736004990460e-01 6.219104744610220e-02
            -1.278167602497580e-01 6.221492266296672e-02 2.156730339866576e-01 6.323393964198831e-01 1.333239842601834e-01 -1.177049989108225e-02 1.233263154794695e-01 -1.426550971582842e-02
            2.156698730491619e-01 6.323100564475961e-01 -1.278232305878116e-01 6.225925781713815e-02 1.234294950730277e-01 -1.425686025010406e-02 1.333981119455987e-01 -1.167984080276991e-02
292756463.7197664976 1.178479433894305e-01 -2.453800047974632e-02 1.229562967409950e-01 -2.115531729554706e-02 -1.164385819473473e-01 8.165678275919799e-02 3.102873060737963e-01 5.922159328930513e-01
            1.229688656022250e-01 -2.116669653362570e-02 1.178924637900301e-01 -2.455573733652872e-02 3.103067442557549e-01 5.921941224479850e-01 -1.163282693091024e-01 8.179063820813269e-02
            -1.163665003465921e-01 8.173920418356544e-02 3.102856552093856e-01 5.922587683681287e-01 1.277307437532370e-01 -2.332867602324246e-02 1.176398810686302e-01 -2.653820249344035e-02
            3.103104433772061e-01 5.922518279287807e-01 -1.163313326416997e-01 8.169903731129897e-02 1.177439526026693e-01 -2.648935002739822e-02 1.277533291471748e-01 -2.332300511832107e-02
293256046.7055879831 1.077397404154847e-01 -3.512854163791684e-02 1.147256091057401e-01 -3.215065666190203e-02 -1.016401904985767e-01 9.956190524171213e-02 3.980687029742931e-01 5.382674329904170e-01
            1.146441900251922e-01 -3.214190811937401e-02 1.077888255955404e-01 -3.504564654355322e-02 3.981389464709233e-01 5.383337970220331e-01 -1.016450983883503e-01 9.955983350823885e-02
            -1.015510207062858e-01 9.951339803431702e-02 3.982001771747981e-01 5.383089525942356e-01 1.189797018719322e-01 -3.283934135998007e-02 1.084561458964037e-01 -3.650940760200420e-02
            3.981427982397807e-01 5.383497190115007e-01 -1.015520817817993e-01 9.954589461818814e-02 1.084098478101151e-01 -3.651518013425056e-02 1.189089367591876e-01 -3.284685664378015e-02
293755629.6914095283 9.497080252906596e-02 -4.206543010919621e-02 1.034636891736882e-01 -4.012578043762607e-02 -8.356369795939823e-02 1.147001349151098e-01 4.773349473071393e-01 4.714828090702257e-01
            1.034583546802311e-01 -4.004847950119116e-02 9.499402527841230e-02 -4.208434636628880e-02 4.773009446139206e-01 4.714809710044643e-01 -8.359594338522386e-02 1.146855678052401e-01
            -8.357183796385907e-02 1.146427862285748e-01 4.773937844410182e-01 4.716343588906996e-01 1.075908589502482e-01 -3.915889432178845e-02 9.642821971164089e-02 -4.324565570650418e-02
            4.773165014663658e-01 4.715036410487256e-01 -8.353745174200081e-02 1.146687650602256e-01 9.645623667303808e-02 -4.321573261327100e-02 1.075681759132288e-01 -3.923942755310947e-02
294255212.6772310138 8.049791808045899e-02 -4.476482208625426e-02 9.031317460609287e-02 -4.411147914883700e-02 -6.283904764253775e-02 1.264777878488151e-01 5.459839920322567e-01 3.929705967529054e-01
            9.038447577354436e-02 -4.414223499115113e-02 8.046265880562410e-02 -4.487502976044109e-02 5.459186264072896e-01 3.930164119772351e-01 -6.279613940532873e-02 1.264962194792328e-01
            -6.281203159798311e-02 1.265294880130064e-01 5.459150824966741e-01 3.929363720542795e-01 9.467992809586037e-02 -4.198447152225873e-02 8.277437491936744e-02 -4.604149736228661e-02
            5.459620097256136e-01 3.929014201599546e-01 -6.279181136856600e-02 1.264204469668744e-01 8.276347854820185e-02 -4.598851634776099e-02 9.472741381930708e-02 -4.202787934312687e-02
294754795.6630525589 6.583568937988866e-02 -4.283351594596391e-02 7.646889893083654e-02 -4.378286569384295e-02 -4.015322293021224e-02 1.341322181239586e-01 6.020050916833768e-01 3.040284179253531e-01
            7.637988173948165e-02 -4.379246155076035e-02 6.590429524626301e-02 -4.289182361528355e-02 6.020662050269207e-01 3.040736152489614e-01 -4.019378773956497e-02 1.341637093937653e-01
            -4.009304397231178e-02 1.341500216823600e-01 6.019951297590704e-01 3.040267977680753e-01 8.153220812614398e-02 -4.059564328756873e-02 6.874662888049972e-02 -4.435768265766396e-02
            6.020673193908962e-01 3.040587106981560e-01 -4.006087393837405e-02 1.341675412560596e-01 6.874907451536887e-02 -4.433753414031669e-02 8.158954145172342e-02 -4.062156539187133e-02
295254378.6488740444 5.254235960745476e-02 -3.646364493667141e-02 6.336859914055973e-02 -3.901927842832125e-02 -1.648817388885838e-02 1.374212042814826e-01 6.438328502081020e-01 2.067698627822452e-01
            6.336363487573191e-02 -3.901786761177167e-02 5.256157656446529e-02 -3.632856939667651e-02 6.438712694371663e-01 2.066983646978327e-01 -1.646002112145756e-02 1.374829035134772e-01
            -1.651399580176265e-02 1.373955133689993e-01 6.438703886465806e-01 2.066934160752363e-01 6.940267502510757e-02 -3.527900520248661e-02 5.581697499651470e-02 -3.836182491471344e-02
            6.437848262219386e-01 2.066765433101556e-01 -1.649903141264338e-02 1.373427450813162e-01 5.583570835115388e-02 -3.826993383371769e-02 6.941794430010501e-02 -3.523452289942275e-02
295753961.6346955895 4.191329498106992e-02 -2.603687998531198e-02 5.236380849205786e-02 -3.028541419178915e-02 6.943775862818894e-03 1.360261885805899e-01 6.698512767174377e-01 1.031999363752581e-01
            5.230985051809622e-02 -3.033000227409546e-02 4.193642465754185e-02 -2.597284075970680e-02 6.699051903240644e-01 1.031862078569446e-01 6.974654100799413e-03 1.359775402849105e-01
            6.997762809922980e-03 1.359682458438418e-01 6.698824055372498e-01 1.032120483130621e-01 5.951406168433835e-02 -2.617743142419017e-02 4.524476159074856e-02 -2.851409729478983e-02
            6.698841222971705e-01 1.031869502409958e-01 6.924049826127633e-03 1.359249641950687e-01 4.523130556249781e-02 -2.848884411653646e-02 5.945871563683693e-02 -2.622347201164943e-02
296253544.6205170751 3.515360148682007e-02 -1.270754808656212e-02 4.490471183429206e-02 -1.844376423059000e-02 2.912848149060342e-02 1.302135046479028e-01 6.789014190078518e-01 -3.741793410258023e-03
            4.467595292586261e-02 -1.849848662135803e-02 3.519454465224964e-02 -1.268291054843466e-02 6.789433016782858e-01 -3.761247711490425e-03 2.907549187141769e-02 1.301747747159335e-01
            2.915103672233022e-02 1.302443187522414e-01 6.789637982548655e-01 -3.831256661605084e-03 5.293912306528609e-02 -1.442945160392493e-02 3.829751931503856e-02 -1.572742421377108e-02
            6.789383006648152e-01 -3.741679416376361e-03 2.917905375717180e-02 1.301678024089329e-01 3.822719908252319e-02 -1.581072803675728e-02 5.298751869627124e-02 -1.445523266689560e-02
296753127.6063386202 3.316196636968117e-02 2.181751243330525e-03 4.159458631542077e-02 -4.689324547585895e-03 4.913549477907050e-02 1.207205914417049e-01 6.704406921635316e-01 -1.112253116530884e-01
            4.161020105755023e-02 -4.793812821047152e-03 3.311703480612864e-02 2.230055974689289e-03 6.704394209762884e-01 -1.112025917242481e-01 4.915754126528640e-02 1.207395402593378e-01
            4.911816310058041e-02 1.207515114937771e-01 6.705051617504606e-01 -1.113040006108911e-01 5.051296865868733e-02 -1.283888206676373e-03 3.562459388544163e-02 -1.313040808591351e-03
            6.704817119751997e-01 -1.111782613172836e-01 4.915747209624794e-02 1.207463881382851e-01 3.561152848685449e-02 -1.371474688914987e-03 5.060073894483232e-02 -1.230552935231958e-03
297252710.5921601653 3.602388082188496e-02 1.682625349699271e-02 4.293377211388563e-02 9.101872765967309e-03 6.630324763313408e-02 1.083765231384810e-01 6.445030739420073e-01 -2.159360790575475e-01
            4.284935104883070e-02 9.115430525283082e-03 3.604120637067428e-02 1.693963271151475e-02 6.445158976354147e-01 -2.159930275287274e-01 6.626658960325424e-02 1.084041788597047e-01
            6.627878874867571e-02 1.083626681091353e-01 6.444511161209928e-01 -2.159247998780099e-01 5.253772048006426e-02 1.198938981732871e-02 3.778020440244299e-02 1.319473971994366e-02
            6.444779007672837e-01 -2.159411619187390e-01 6.638799265411424e-02 1.083655728850385e-01 3.773643065987882e-02 1.314780782452667e-02 5.253797158886553e-02 1.201744606839598e-02
297752293.5779816508 4.343811696004640e-02 2.995679092987443e-02 4.876812333585344e-02 2.175655741727153e-02 8.044086181446621e-02 9.405921007431610e-02 6.017243158732066e-01 -3.150685482030859e-01
            4.870195365738578e-02 2.172358833099309e-02 4.352728834279509e-02 2.995360965428654e-02 6.017478446699084e-01 -3.149928878388553e-01 8.045808712614229e-02 9.406493221767344e-02
            8.043437740461999e-02 9.403945765437320e-02 6.017964764233501e-01 -3.150116415612248e-01 5.863370308675276e-02 2.393722673278913e-02 4.421391624967690e-02 2.620224347813471e-02
            6.018313121225245e-01 -3.150231895200166e-01 8.044830760842803e-02 9.402311443214732e-02 4.409741906484025e-02 2.621327113787979e-02 5.861233087369560e-02 2.393184027785554e-02
298251876.5638031960 5.475729475697113e-02 3.988522990199152e-02 5.820547539865174e-02 3.178524091327356e-02 9.142990066480901e-02 7.847129821013588e-02 5.436983955697553e-01 -4.054977591084999e-01
            5.830814203609844e-02 3.171619564623195e-02 5.467129016356071e-02 3.987671642707198e-02 5.437544649788981e-01 -4.055037800046382e-01 9.147088274205421e-02 7.844051047790726e-02
            9.151926847669146e-02 7.847718341060865e-02 5.437540311540906e-01 -4.054251344814991e-01 6.818369423439574e-02 3.311676154417921e-02 5.440993798534419e-02 3.651144271537028e-02
            5.437304008462885e-01 -4.054789223843686e-01 9.144569486043555e-02 7.851853510473505e-02 5.443207521530889e-02 3.648795748349316e-02 6.809899004892958e-02 3.323896098881989e-02
298751459.5496246815 6.842344298914267e-02 4.559625225757186e-02 7.042337712723838e-02 3.810825714798650e-02 9.975872663487281e-02 6.253853375823140e-02 4.722588660541444e-01 -4.849144072828058e-01
            7.039182985833616e-02 3.811473430662590e-02 6.845680353747141e-02 4.561996071458242e-02 4.721990052560612e-01 -4.849449640570574e-01 9.970871967627515e-02 6.244642913775494e-02
            9.973952629390041e-02 6.246622041274353e-02 4.722849628033706e-01 -4.849369870801720e-01 8.008089911879603e-02 3.887193152904643e-02 6.719630768095036e-02 4.303145716293753e-02
            4.722488785019778e-01 -4.848714047639172e-01 9.971992278204565e-02 6.251294407877564e-02 6.715339712747032e-02 4.306524676048901e-02 8.002221168275554e-02 3.881647825377473e-02
299251042.5354462266 8.327735699806946e-02 4.683308674534024e-02 8.382962030355577e-02 4.022982316064060e-02 1.055898213603358e-01 4.630441601939767e-02 3.896239253158414e-01 -5.515534529309378e-01
            8.383828603094204e-02 4.022282726566599e-02 8.334457811904013e-02 4.687156666534403e-02 3.895525348761653e-01 -5.515582458463774e-01 1.054671960968844e-01 4.638057675868151e-02
            1.055289843136633e-01 4.631535713122811e-02 3.896320444165247e-01 -5.515605391725349e-01 9.303289837331763e-02 4.053341802672869e-02 8.114838216183545e-02 4.529312566322641e-02
            3.896268734798077e-01 -5.515127689510168e-01 1.054355918794422e-01 4.627373310954369e-02 8.112350466490581e-02 4.533216170342046e-02 9.298030888207448e-02 4.053375286210090e-02
299750625.5212677121 9.770616725673617e-02 4.337724219753201e-02 9.716027135020844e-02 3.806026401919495e-02 1.092398189300513e-01 3.014863291650128e-02 2.982179835968591e-01 -6.039545881852619e-01
            9.708675937325367e-02 3.800637885247540e-02 9.774089560848036e-02 4.336576742994342e-02 2.982512357960533e-01 -6.039439941279753e-01 1.093423979938677e-01 3.009508255370217e-02
            1.093252959674165e-01 3.012512786414429e-02 2.982322453516623e-01 -6.039625105045175e-01 1.057522487609934e-01 3.804167339498978e-02 9.489193546347491e-02 4.326922672668389e-02
            2.982332380612953e-01 -6.040398044068749e-01 1.092725361321099e-01 3.015940772154662e-02 9.490514040774189e-02 4.320570285445780e-02 1.056757982077591e-01 3.805924034617792e-02
300250208.5070892572 1.102627467897169e-01 3.569083253001500e-02 1.089469466314359e-01 3.179152104081891e-02 1.110261680586833e-01 1.401125439319957e-02 2.005665350082565e-01 -6.413601612253095e-01
            1.090264516888284e-01 3.175437832083725e-02 1.102851659787722e-01 3.558571319556035e-02 2.005958191375877e-01 -6.413941131274320e-01 1.111347781385807e-01 1.397180016689045e-02
            1.111580197760794e-01 1.391685856238094e-02 2.005978447022309e-01 -6.413717337501587e-01 1.169662182116470e-01 3.187243557224719e-02 1.072506265299948e-01 3.721160521113175e-02
            2.005509078527906e-01 -6.414083485516677e-01 1.111497178070646e-01 1.391743781570713e-02 1.072782895399545e-01 3.717590389647938e-02 1.169687774740261e-01 3.190786247806827e-02
300749791.4929107428 1.198727037743045e-01 2.455499305873280e-02 1.182880841828650e-01 2.230613422260148e-02 1.112264193964910e-01 -2.304556065111131e-03 9.899010281610114e-02 -6.633487474205758e-01
            1.183373274315475e-01 2.222568730141103e-02 1.197690721704613e-01 2.462146147666806e-02 9.904922770674955e-02 -6.633321225103834e-01 1.112154539474772e-01 -2.230002881040042e-03
            1.112327960817255e-01 -2.281844927831139e-03 9.907080344527811e-02 -6.633361580155224e-01 1.258666506777562e-01 2.262553700108330e-02 1.170708868223307e-01 2.768882411376710e-02
            9.898425238199489e-02 -6.633105343258813e-01 1.110945928064729e-01 -2.251620105324727e-03 1.170638746018792e-01 2.767125696006829e-02 1.257739770506421e-01 2.271479984257161e-02
301249374.4787322879 1.256318857757962e-01 1.120973568638572e-02 1.242195118190339e-01 1.016550274509016e-02 1.092973973355058e-01 -1.851244543251986e-02 -4.091752163961950e-03 -6.697001197104494e-01
            1.241913243462533e-01 1.027842437575787e-02 1.256381344690799e-01 1.125543732437285e-02 -4.078714254847203e-03 -6.696188159377560e-01 1.093031646527294e-01 -1.859737715201854e-02
            1.092416133624164e-01 -1.860278857669551e-02 -4.109327696122599e-03 -6.697948190507790e-01 1.312927603689361e-01 1.121651930123317e-02 1.235283627326954e-01 1.587702098720800e-02
            -4.133827752450950e-03 -6.698384601909951e-01 1.092701418905664e-01 -1.856314702642915e-02 1.234616125218033e-01 1.592470779562358e-02 1.313182729602229e-01 1.123086798922110e-02
301748957.4645537734 1.272639065176882e-01 -3.307057029574234e-03 1.261550227136933e-01 -2.927804675642534e-03 1.051054922212050e-01 -3.487802302488321e-02 -1.067168453436787e-01 -6.607844091716946e-01
            1.261112033690936e-01 -2.996096422963012e-03 1.272828125662289e-01 -3.310042853226820e-03 -1.067748074935695e-01 -6.606473710885991e-01 1.050877416265723e-01 -3.489152140405666e-02
            1.051289078099340e-01 -3.492088697108204e-02 -1.067123479725485e-01 -6.606593835904592e-01 1.332051228492938e-01 -1.331769433144966e-03 1.260139456361313e-01 2.967821447493481e-03
            -1.066784726926933e-01 -6.607421672752996e-01 1.051544198453774e-01 -3.494329167513394e-02 1.260671524272757e-01 2.896112489949951e-03 1.331397047111517e-01 -1.335640660037570e-03
302248540.4503753185 1.243812800774240e-01 -1.767805486024593e-02 1.240919161298461e-01 -1.614818147115590e-02 9.848368160235782e-02 -5.081351045515917e-02 -2.067237075222897e-01 -6.365073996276733e-01
            1.240080092158303e-01 -1.620289459262451e-02 1.244193933489092e-01 -1.765882871005642e-02 -2.067070974833988e-01 -6.365185357356192e-01 9.848777328999393e-02 -5.079951115319597e-02
            9.847014516593637e-02 -5.085037272309693e-02 -2.066862726764482e-01 -6.365060131131988e-01 1.312762343387255e-01 -1.377454826637140e-02 1.245573926580949e-01 -1.025813176424696e-02
            -2.067628462542596e-01 -6.365524966290705e-01 9.843476652336799e-02 -5.090826105823301e-02 1.246179252445774e-01 -1.022928575601963e-02 1.312128400296171e-01 -1.385429004836410e-02
302748123.4361968637 1.174064592593397e-01 -3.052899859434418e-02 1.179065239755738e-01 -2.831278700370666e-02 8.901900629203560e-02 -6.608135915855538e-02 -3.021368560133046e-01 -5.977337309005774e-01
            1.178729292663798e-01 -2.833742384161242e-02 1.174841063423101e-01 -3.056986565387068e-02 -3.021737619015685e-01 -5.977319873131651e-01 8.905725780661207e-02 -6.601761119643532e-02
            8.907370479311585e-02 -6.604520735124937e-02 -3.021083605050439e-01 -5.977649841997418e-01 1.255106225987926e-01 -2.519329036063836e-02 1.192131084450061e-01 -2.225319169630961e-02
            -3.021761401574216e-01 -5.977813332701132e-01 8.919330443698009e-02 -6.597944924013686e-02 1.192438614188549e-01 -2.224316161729760e-02 1.255510980217961e-01 -2.521954884776554e-02
303247706.4220183492 1.068523955362239e-01 -4.071026038275829e-02 1.083361008307456e-01 -3.816063018158784e-02 7.690656801130813e-02 -7.973005617931600e-02 -3.910046438346343e-01 -5.449898975854433e-01
            1.083837565312988e-01 -3.805326386911295e-02 1.068049979727070e-01 -4.062595243460197e-02 -3.910649336868543e-01 -5.449192511084519e-01 7.691283139005904e-02 -7.977473944395490e-02
            7.697498787458860e-02 -7.982151383943653e-02 -3.910360101687685e-01 -5.449907434316754e-01 1.167116934350399e-01 -3.422427198638842e-02 1.105146085046130e-01 -3.190502904479850e-02
            -3.909968665249545e-01 -5.449915891530340e-01 7.695091272219093e-02 -7.981506527032640e-02 1.105085110935865e-01 -3.187151999181933e-02 1.166522611125770e-01 -3.426327294083416e-02
303747289.4078398943 9.364621575771999e-02 -4.723187647443899e-02 9.608575190806395e-02 -4.453111613183445e-02 6.222393324841145e-02 -9.134609713654142e-02 -4.712849763362456e-01 -4.791508040090317e-01
            9.598991093913173e-02 -4.450543552713541e-02 9.362609770110432e-02 -4.714948056370907e-02 -4.713654365904068e-01 -4.791226950435333e-01 6.222828326519820e-02 -9.138163982183088e-02
            6.226401829141532e-02 -9.132918040242904e-02 -4.713481988986367e-01 -4.791496700170402e-01 1.054596050972086e-01 -4.033888569304758e-02 9.916014418933695e-02 -3.848558122145268e-02
            -4.714096836503101e-01 -4.791385860372989e-01 6.221427263434012e-02 -9.133731165135855e-02 9.911450194830880e-02 -3.848455479528621e-02 1.055138038536571e-01 -4.035224662959225e-02
304246872.3936613798 7.903717067058010e-02 -4.945748829804548e-02 8.225256371590606e-02 -4.687807004859512e-02 4.530531519404037e-02 -1.000345868658212e-01 -5.412054579969997e-01 -4.012659139288430e-01
            8.223320480586610e-02 -4.692446289062592e-02 7.900285814794011e-02 -4.943894977751417e-02 -5.412406635881040e-01 -4.012664052315010e-01 4.532979873788616e-02 -1.000349754019452e-01
            4.533136988270251e-02 -1.000754667169012e-01 -5.411713812110379e-01 -4.013075179508332e-01 9.273463389082265e-02 -4.261627784476312e-02 8.632760970317190e-02 -4.125649319905399e-02
            -5.411745266926549e-01 -4.013292585666665e-01 4.529761679051758e-02 -9.993707592013047e-02 8.626371839264275e-02 -4.123762188359025e-02 9.272711582326891e-02 -4.268714075040644e-02
304746455.3794829249 6.437796612820809e-02 -4.691209217680815e-02 6.803253676328916e-02 -4.495510176662576e-02 2.698277202941438e-02 -1.052224264255669e-01 -5.987061964497462e-01 -3.128422427108203e-01
            6.807987999683895e-02 -4.492860169703690e-02 6.434394056456881e-02 -4.687254985685668e-02 -5.986239157273237e-01 -3.128744769498045e-01 2.689635717503224e-02 -1.052207018945939e-01
            2.686840810289285e-02 -1.052847065573097e-01 -5.986390002729336e-01 -3.128935019034963e-01 7.996643343656988e-02 -4.083129113005707e-02 7.319921463222172e-02 -3.980347173531677e-02
            -5.985831224883852e-01 -3.128790831384609e-01 2.688557539051640e-02 -1.052007164936756e-01 7.322671904028535e-02 -3.984928798114244e-02 7.996646134184174e-02 -4.076264387655593e-02
305246038.3653044105 5.115340734884941e-02 -3.989617088958913e-02 5.514827951541108e-02 -3.859110929301036e-02 8.019169665963022e-03 -1.067028351358703e-01 -6.417127089405952e-01 -2.158479589199856e-01
            5.523361763821912e-02 -3.859105689113484e-02 5.113220008271440e-02 -3.997287026022794e-02 -6.417692618465480e-01 -2.157932242176302e-01 7.959320037606455e-03 -1.066689051376824e-01
            7.953668861012479e-03 -1.065712009326628e-01 -6.418593221210555e-01 -2.158408618276735e-01 6.820060194756461e-02 -3.504278333069270e-02 6.122336075709912e-02 -3.420027947543491e-02
            -6.418298689609612e-01 -2.158541026156136e-01 7.999138113577005e-03 -1.066136559334110e-01 6.116111925179177e-02 -3.417329143063067e-02 6.819390239938117e-02 -3.502753360794855e-02
305745621.3511259556 4.081771461097540e-02 -2.904397307411086e-02 4.487206675960551e-02 -2.841355290988816e-02 -1.060084915940203e-02 -1.041881082580577e-01 -6.690857378639231e-01 -1.124487186387259e-01
            4.483251052269870e-02 -2.842439614339482e-02 4.075313149064729e-02 -2.909929907579581e-02 -6.690477441854179e-01 -1.124383657347484e-01 -1.056181949825959e-02 -1.042170478045201e-01
            -1.049468321481316e-02 -1.042033670179525e-01 -6.690726979953938e-01 -1.124471394564368e-01 5.887842022761003e-02 -2.565308280543974e-02 5.167473903038604e-02 -2.496259727865526e-02
            -6.691034136745097e-01 -1.123878177663713e-01 -1.052900708423016e-02 -1.042460033141734e-01 5.167264548418756e-02 -2.499842028176775e-02 5.885391085453519e-02 -2.567148647407326e-02
306245204.3369474411 3.449148491390913e-02 -1.549839157246403e-02 3.816718525019733e-02 -1.533666373171701e-02 -2.761400164655408e-02 -9.823599859937640e-02 -6.794354899525138e-01 -5.430474862238067e-03
            3.820133358010237e-02 -1.533171388588754e-02 3.447219219224282e-02 -1.543902615719991e-02 -6.794238006836989e-01 -5.453886505965680e-03 -2.764992922584342e-02 -9.830822272140408e-02
            -2.769135306615902e-02 -9.818796644763923e-02 -6.794353573447822e-01 -5.464214101603940e-03 5.297306263106213e-02 -1.390800879772600e-02 4.560096805360921e-02 -1.319675938120374e-02
            -6.794177682734968e-01 -5.429080313795060e-03 -2.773239673049146e-02 -9.827662337966700e-02 4.552067187717056e-02 -1.320975801449121e-02 5.296592427985752e-02 -1.387821338779954e-02
306744787.3227689862 3.287900590361083e-02 -3.802789827679136e-04 3.596675486599503e-02 -7.617315705103628e-04 -4.264736616511710e-02 -8.943180424977670e-02 -6.721722314382367e-01 1.022506937639983e-01
            3.596142441795358e-02 -7.428018864617037e-04 3.288236771204136e-02 -3.984295856684108e-04 -6.721762434987681e-01 1.021635978781640e-01 -4.261027818841810e-02 -8.939386841767884e-02
            -4.258812552131709e-02 -8.942737388586687e-02 -6.721887861054435e-01 1.022168031097576e-01 5.112179703312300e-02 -7.211860313171260e-04 4.367655139027503e-02 1.975902072133200e-05
            -6.721555392822031e-01 1.021916277472626e-01 -4.265230334622729e-02 -8.942141592163964e-02 4.369778940747900e-02 -9.196922598722168e-05 5.122282865778282e-02 -7.139767168620715e-04
307244370.3085904717 3.623782626087217e-02 1.432521030696061e-02 3.846721057924368e-02 1.373985149315077e-02 -5.490666315388719e-02 -7.851632579756654e-02 -6.473789594892811e-01 2.072789422896252e-01
            3.845724075861491e-02 1.373753890165786e-02 3.623072168290977e-02 1.433834178031755e-02 -6.474304493640081e-01 2.072723609520955e-01 -5.491638045420819e-02 -7.860974245312502e-02
            -5.496634776766302e-02 -7.853847385146509e-02 -6.474196564978228e-01 2.072660206390474e-01 5.371353469661443e-02 1.236592003069365e-02 4.605858582616467e-02 1.305269134095455e-02
            -6.473957868977003e-01 2.073381594587276e-01 -5.490066573923115e-02 -7.855002026521384e-02 4.616896555685027e-02 1.301357588808650e-02 5.374983174953240e-02 1.233210505121130e-02
307743953.2944120169 4.413125528053603e-02 2.704764140620775e-02 4.538673579419009e-02 2.659043527966785e-02 -6.440761043423487e-02 -6.646635835700267e-02 -6.058915564489625e-01 3.066890909635601e-01
            4.536181734682967e-02 2.661112413342689e-02 4.409263977872206e-02 2.711159042107094e-02 -6.058891852995494e-01 3.066459534209813e-01 -6.444271151378592e-02 -6.641837415604275e-02
            -6.445181929822227e-02 -6.646390985120312e-02 -6.058258329121345e-01 3.067048327683503e-01 6.029387569391851e-02 2.388058770013982e-02 5.272459789063263e-02 2.462741538884892e-02
            -6.059365938838469e-01 3.066801467255367e-01 -6.450127304023880e-02 -6.641264518776892e-02 5.277373287297854e-02 2.454577356572555e-02 6.035525960701735e-02 2.397173785912949e-02
308243536.2802335620 5.578483873950308e-02 3.663922589054935e-02 5.607976007791783e-02 3.663726911217761e-02 -7.136564734235340e-02 -5.381823984497310e-02 -5.489691472111623e-01 3.977300193747769e-01
            5.599986106546214e-02 3.663317929843148e-02 5.569033844000243e-02 3.656325338347244e-02 -5.490084017603772e-01 3.977435719090321e-01 -7.142721794643356e-02 -5.391940989545796e-02
            -7.140563861287154e-02 -5.395322178857384e-02 -5.489258380254325e-01 3.977002893930628e-01 7.031545206014464e-02 3.277581005692679e-02 6.264922389717989e-02 3.328249370269133e-02
            -5.490162778110590e-01 3.976457377146388e-01 -7.139446847452377e-02 -5.383883282545827e-02 6.271527393589867e-02 3.329418974529251e-02 7.030615591077086e-02 3.280052081121573e-02
308743119.2660550475 6.967531006576386e-02 4.196395390940767e-02 6.915545073123458e-02 4.276099616064826e-02 -7.613297674525314e-02 -4.145455012585216e-02 -4.786759083454755e-01 4.778696532025928e-01
            6.907420061165942e-02 4.270336782704599e-02 6.966968887214772e-02 4.198775674829647e-02 -4.786741348135850e-01 4.779580802256880e-01 -7.611282868937931e-02 -4.137726939023012e-02
            -7.605427181466201e-02 -4.135622764188079e-02 -4.786457884809801e-01 4.779457121461199e-01 8.241409116026742e-02 3.810107196811838e-02 7.482113017090337e-02 3.829328515268824e-02
            -4.786138379881108e-01 4.779535105820616e-01 -7.614966443721427e-02 -4.143064237038399e-02 7.476970946971878e-02 3.842700097029860e-02 8.251246391805722e-02 3.812971934379038e-02
309242702.2518765926 8.466552289153752e-02 4.265764334048811e-02 8.324360677677420e-02 4.445998973483226e-02 -7.897372727645471e-02 -2.915044818323606e-02 -3.969677165857288e-01 5.455438605402366e-01
            8.327916566125065e-02 4.449181747078759e-02 8.456726561031330e-02 4.262214351712030e-02 -3.971055432484081e-01 5.454759823030536e-01 -7.904333525387394e-02 -2.922690303161660e-02
            -7.909304596471559e-02 -2.921470927265853e-02 -3.969831433482247e-01 5.454307703632065e-01 9.561399760291460e-02 3.922519198652266e-02 8.789907588311056e-02 3.934588224244601e-02
            -3.970568983846410e-01 5.454482668281992e-01 -7.902831426889104e-02 -2.912752625787892e-02 8.784060530688992e-02 3.931570958142635e-02 9.566252777943868e-02 3.925495143344058e-02
309742285.2376980782 9.884212227816179e-02 3.862405416948865e-02 9.709288840650457e-02 4.179427203897659e-02 -8.061560097484857e-02 -1.742224258590692e-02 -3.065679273933375e-01 5.989957795876478e-01
            9.720758294818353e-02 4.181375047612662e-02 9.890310122568044e-02 3.871229525207906e-02 -3.065776047209839e-01 5.990573691341285e-01 -8.061735697368923e-02 -1.731970043858807e-02
            -8.048994852507141e-02 -1.737109466377640e-02 -3.064788486703412e-01 5.990235057013702e-01 1.084427821449087e-01 3.637283972736348e-02 1.004401554060431e-01 3.609126173795403e-02
            -3.066413718245951e-01 5.990977093237311e-01 -8.054402785222992e-02 -1.735129713831192e-02 1.005420070460149e-01 3.606707984841046e-02 1.084062981560266e-01 3.633914154601749e-02
310241868.2235196233 1.112554588861600e-01 3.054256976234006e-02 1.093852019148920e-01 3.508981274349835e-02 -8.091805414612271e-02 -5.772244638358793e-03 -2.096944202781821e-01 6.377559087043992e-01
            1.093475630639174e-01 3.502009009063465e-02 1.112292923362877e-01 3.047569425712665e-02 -2.097087713216179e-01 6.377818336467885e-01 -8.092883531404663e-02 -5.816283578684386e-03
            -8.096836014355765e-02 -5.882448694509151e-03 -2.095938108259360e-01 6.377356657942607e-01 1.197454740249288e-01 2.979287809723209e-02 1.114551199508365e-01 2.925458190237273e-02
            -2.096589858050052e-01 6.376909454909634e-01 -8.096233045646939e-02 -5.829981547884492e-03 1.115760635042884e-01 2.922523441809791e-02 1.197197114588942e-01 2.981817015377105e-02
310741451.2093411088 1.205195970265751e-01 1.901687905645043e-02 1.189250528389969e-01 2.517181234118204e-02 -8.020365304775688e-02 5.755465970094460e-03 -1.086842576168317e-01 6.610879089954040e-01
            1.189640785818759e-01 2.506407805688594e-02 1.205670549734748e-01 1.905991495587187e-02 -1.086424327961785e-01 6.610897170228665e-01 -8.014392682875686e-02 5.733560302533488e-03
            -8.014039912099039e-02 5.744700662802296e-03 -1.086667740898159e-01 6.611036770216755e-01 1.285429269330821e-01 2.021738045939220e-02 1.198241750097843e-01 1.937895741999734e-02
            -1.086544560027964e-01 6.611338258180773e-01 -8.016463188335116e-02 5.694537600603406e-03 1.198096452419869e-01 1.937469870356614e-02 1.284491321001515e-01 2.021127639865178e-02
311241034.1951626539 1.259765187909445e-01 5.196005271239597e-03 1.249626111409319e-01 1.277720521181344e-02 -7.814755952125021e-02 1.723109423634677e-02 -5.848623073351668e-03 6.689253771830154e-01
            1.250351455543487e-01 1.281836626612299e-02 1.259905736611046e-01 5.303371704844032e-03 -5.842406661944211e-03 6.689497748144891e-01 -7.812738350141506e-02 1.715786164224940e-02
            -7.819055940732564e-02 1.727859696737485e-02 -5.795346810698413e-03 6.689032940324844e-01 1.339828896920912e-01 8.477721085269315e-03 1.247996685615543e-01 7.495125307632682e-03
            -5.741681674140495e-03 6.688887474958436e-01 -7.814942240229850e-02 1.720661797903398e-02 1.247876333557504e-01 7.483346849058035e-03 1.339870505373812e-01 8.485936630932396e-03
311740617.1809841394 1.271017467733251e-01 -9.472743051298530e-03 1.271505343456884e-01 -7.129270831908797e-04 -7.459522927857117e-02 2.877512189354401e-02 9.672631833784485e-02 6.613689548529154e-01
            1.271873440909204e-01 -6.589237192194028e-04 1.270980283621786e-01 -9.493105193275335e-03 9.680955535037754e-02 6.614911697489952e-01 -7.462718984771297e-02 2.881755734154922e-02
            -7.473106674549429e-02 2.878604915852628e-02 9.680500731098605e-02 6.614927714924109e-01 1.358078773366852e-01 -4.256462980920562e-03 1.259543440584139e-01 -5.400730010572278e-03
            9.668410008407384e-02 6.614232506458066e-01 -7.465321320304513e-02 2.872720073931219e-02 1.259445458436479e-01 -5.464829168568015e-03 1.357456016494357e-01 -4.301583838401611e-03
312240200.1668056846 1.237156502121611e-01 -2.396686097288255e-02 1.252796786944712e-01 -1.422449195365813e-02 -6.935845987463711e-02 4.014329405366413e-02 1.970378159911708e-01 6.387950977020467e-01
            1.251955759375418e-01 -1.422478216064165e-02 1.237521840371180e-01 -2.397350428169637e-02 1.969462852923373e-01 6.387879589200487e-01 -6.936146693782796e-02 4.024083386016335e-02
            -6.935311253902376e-02 4.019826270216845e-02 1.969869729547375e-01 6.388765407926944e-01 1.338577452504855e-01 -1.701492627496604e-02 1.232310430178368e-01 -1.809669334206822e-02
            1.969639760485410e-01 6.387922590038341e-01 -6.938111287002001e-02 4.023106150556586e-02 1.231980285845439e-01 -1.811466353275925e-02 1.338444818332564e-01 -1.697472648891553e-02
312739783.1526271701 1.163597546483617e-01 -3.684499398756904e-02 1.192940958524791e-01 -2.642575229098678e-02 -6.203026970075454e-02 5.098447180884756e-02 2.928503447967271e-01 6.015087295725170e-01
            1.192570085405670e-01 -2.650116365136304e-02 1.163165176839491e-01 -3.684288368185957e-02 2.927881097120917e-01 6.015411068215866e-01 -6.192042825920117e-02 5.095543606225008e-02
            -6.201971304675354e-02 5.104972922985853e-02 2.927907596704418e-01 6.015773363215422e-01 1.281372446138763e-01 -2.846028294820365e-02 1.168145247599474e-01 -2.938958762727840e-02
            2.928972202273082e-01 6.015172104409567e-01 -6.199605998134433e-02 5.102872532551925e-02 1.167271974084681e-01 -2.949052782253813e-02 1.282346702073142e-01 -2.847027863487333e-02
313239366.1384487152 1.053076335079038e-01 -4.705469766639351e-02 1.099284893702882e-01 -3.642236464361030e-02 -5.251576518264497e-02 6.080348557043359e-02 3.823984857373782e-01 5.502265706610771e-01
            1.099306794359391e-01 -3.643665585180111e-02 1.053701345245277e-01 -4.708463054227388e-02 3.823515277815091e-01 5.502052440330448e-01 -5.265801191914181e-02 6.077429093666345e-02
            -5.258901872775046e-02 6.076532982120916e-02 3.823981288396001e-01 5.500965542837248e-01 1.194394233886780e-01 -3.795768077717406e-02 1.072246342910110e-01 -3.840072048655759e-02
            3.823925129973020e-01 5.501741179704612e-01 -5.248002598244544e-02 6.072617893474315e-02 1.071481852128546e-01 -3.849286969136209e-02 1.194668436942829e-01 -3.788566808188870e-02
313738949.1242702603 9.183720392555290e-02 -5.351005228277986e-02 9.802690891207091e-02 -4.307832819575387e-02 -4.109092934206422e-02 6.884878485836174e-02 4.635761986281042e-01 4.855498682369502e-01
            9.806159675779294e-02 -4.312979999546562e-02 9.178419868436087e-02 -5.345499998060672e-02 4.636023856012134e-01 4.855648752150474e-01 -4.091778072851945e-02 6.881597102601107e-02
            -4.107443321304083e-02 6.882689868715766e-02 4.635503533073372e-01 4.855436651777659e-01 1.082639717176804e-01 -4.417529202327068e-02 9.526710398862286e-02 -4.409463227877210e-02
            4.635620080171282e-01 4.855437889927291e-01 -4.103611521818656e-02 6.883863247722857e-02 9.535308723165281e-02 -4.411704270508426e-02 1.082109234282891e-01 -4.414670644843957e-02
314238532.1100917459 7.675358942793355e-02 -5.554271920267598e-02 8.462365438459056e-02 -4.588180444548923e-02 -2.786728006861556e-02 7.449725483923807e-02 5.345191136082441e-01 4.087577379572850e-01
            8.460818542051876e-02 -4.586252397086456e-02 7.680522124135646e-02 -5.552300335011795e-02 5.344452193084227e-01 4.087942216831952e-01 -2.788866852550081e-02 7.454516838525631e-02
            -2.792166138318577e-02 7.456032087194701e-02 5.344557129902985e-01 4.088145243558994e-01 9.559461380919680e-02 -4.675437690480721e-02 8.214302371089939e-02 -4.601101431654419e-02
            5.344539174931848e-01 4.087880758212098e-01 -2.787414402138328e-02 7.450083976746782e-02 8.209216494794051e-02 -4.595108899157361e-02 9.564343693097398e-02 -4.686745115676619e-02
314738115.0959132910 6.186860686490971e-02 -5.290241686524860e-02 7.101700447014941e-02 -4.431816905903402e-02 -1.365625232913227e-02 7.736641267347702e-02 5.930318319759694e-01 3.213529335574377e-01
            7.096617769324538e-02 -4.438173170397456e-02 6.191808947909573e-02 -5.293844172269167e-02 5.930471544222591e-01 3.213514805518844e-01 -1.372797315844754e-02 7.738710623670798e-02
            -1.360525207010683e-02 7.728197369888724e-02 5.930394164365969e-01 3.214471832078322e-01 8.283417005005837e-02 -4.534886575722417e-02 6.889384395243783e-02 -4.382013913715643e-02
            5.930730476684288e-01 3.213721850939391e-01 -1.369182451390938e-02 7.737788631127691e-02 6.893312073728459e-02 -4.380159220369648e-02 8.286045605275334e-02 -4.546141825461560e-02
315237698.0817347765 4.849870703013066e-02 -4.589002687097536e-02 5.846449545912448e-02 -3.852989748056652e-02 7.647314206909765e-04 7.717448143719473e-02 6.374330349356098e-01 2.250901538918028e-01
            5.840506172357518e-02 -3.853111405466238e-02 4.848568442841964e-02 -4.592538082693282e-02 6.375181402439390e-01 2.251667430194750e-01 8.049475761455993e-04 7.714009629982618e-02
            7.470760454759809e-04 7.718862616698052e-02 6.374824335564725e-01 2.251421138433757e-01 7.111057942596892e-02 -4.013677977119391e-02 5.690166743214238e-02 -3.752689824567778e-02
            6.374314161415963e-01 2.251045225748112e-01 8.395914599013303e-04 7.719152949470462e-02 5.691636199223032e-02 -3.752067065077979e-02 7.111780042316171e-02 -4.007914341653211e-02
315737281.0675563216 3.793108414863863e-02 -3.486945337018057e-02 4.835197868833472e-02 -2.922188221017299e-02 1.462484646999911e-02 7.382161003854558e-02 6.662250537628102e-01 1.223494202190049e-01
            4.830191173412769e-02 -2.918778291047393e-02 3.794854223111101e-02 -3.486599264826847e-02 6.663601162897327e-01 1.223752896589376e-01 1.465663091480999e-02 7.378412778989474e-02
            1.460720311191679e-02 7.378116022573372e-02 6.662850298407428e-01 1.223393133634024e-01 6.173140222786468e-02 -3.136598759330373e-02 4.747293883451845e-02 -2.793871243087494e-02
            6.662524148164780e-01 1.223374193856254e-01 1.465377435946660e-02 7.381644235968927e-02 4.749829717836924e-02 -2.784358627795729e-02 6.166340600982381e-02 -3.141298903917498e-02
316236864.0533778071 3.149105262372097e-02 -2.125462607358118e-02 4.182334684533116e-02 -1.713619996212916e-02 2.701513343112030e-02 6.770968422724689e-02 6.781236668076737e-01 1.578608550248868e-02
            4.184368576512516e-02 -1.722049927870200e-02 3.149929053968352e-02 -2.118387263538788e-02 6.781192148583032e-01 1.577099325682326e-02 2.707777498675181e-02 6.769220163827995e-02
            2.692201542934411e-02 6.774721570621370e-02 6.781404805071450e-01 1.573104346505582e-02 5.556309248982477e-02 -2.015671094054175e-02 4.161515785722867e-02 -1.584331006552130e-02
            6.781951577111809e-01 1.581479878123595e-02 2.695684005570118e-02 6.768515454181370e-02 4.153572318808697e-02 -1.578340157648532e-02 5.553996370648898e-02 -2.024478688651896e-02
316736447.0391993523 2.965279474736435e-02 -6.219461493207899e-03 3.949322498568144e-02 -3.729265558368226e-03 3.729797174518280e-02 5.942467845243760e-02 6.725030688893207e-01 -9.170056907145452e-02
            3.956199621519145e-02 -3.710201184662889e-03 2.971152732582404e-02 -6.289715640874079e-03 6.724637156777977e-01 -9.169152276980698e-02 3.729740254889690e-02 5.944478433849683e-02
            3.726153370037433e-02 5.941598697625931e-02 6.725804414409009e-01 -9.169583510657030e-02 5.333443906957681e-02 -7.544299864764488e-03 3.968495416036896e-02 -2.401236326861594e-03
            6.725293070457028e-01 -9.171275844344202e-02 3.730983165136182e-02 5.938110151201772e-02 3.974958024934662e-02 -2.462004057215724e-03 5.337143960224822e-02 -7.560206823923476e-03
317236030.0250208378 3.289617610445298e-02 8.345377476953889e-03 4.170585922296227e-02 9.645526828615473e-03 4.520553612805268e-02 4.982684287433539e-02 6.494267204203036e-01 -1.968581551679142e-01
            4.174284230182029e-02 9.560912061809220e-03 3.287088122030590e-02 8.361172574349082e-03 6.494923296110595e-01 -1.969134907662485e-01 4.515854225549495e-02 4.986357527442509e-02
            4.518817515339357e-02 4.972786102344819e-02 6.493580797674988e-01 -1.967910921412478e-01 5.529592973220285e-02 4.966610099732341e-03 4.215099857965549e-02 1.057463848964660e-02
            6.494157620779857e-01 -1.969231868229436e-01 4.517710824375914e-02 4.987134254821977e-02 4.222361252999179e-02 1.066447629411207e-02 5.532118823228322e-02 4.984059730681532e-03
317735613.0108423829 4.059654439557779e-02 2.113429444488535e-02 4.799525656331147e-02 2.128906076016488e-02 5.054196186881375e-02 3.959531148357086e-02 6.096371178069555e-01 -2.967229953039061e-01
            4.801420651107444e-02 2.123640691208980e-02 4.053696700872993e-02 2.115422365679579e-02 6.096564357419036e-01 -2.967121363249207e-01 5.059607172099650e-02 3.960169420834728e-02
            5.049229452886896e-02 3.956966273309291e-02 6.095979299523259e-01 -2.966812344276631e-01 6.128736011037408e-02 1.613821297075164e-02 4.862721156828883e-02 2.225163595033732e-02
            6.097034898327219e-01 -2.967498913868536e-01 5.053680196962577e-02 3.952813174840279e-02 4.861284931273994e-02 2.225472620331077e-02 6.132315825782133e-02 1.615828333686745e-02
318235195.9966638684 5.187907389782049e-02 3.071989265583598e-02 5.768774425901784e-02 3.017468360468566e-02 5.363900934509550e-02 2.944707569858200e-02 5.543743800422414e-01 -3.885086916276852e-01
            5.768016030505736e-02 3.014743432038981e-02 5.192507130545183e-02 3.062287365369568e-02 5.543158233469032e-01 -3.883561004778772e-01 5.361561441637545e-02 2.945204390343832e-02
            5.366696482520296e-02 2.948339094331985e-02 5.543413628078795e-01 -3.884867523653232e-01 7.047420064595104e-02 2.482419876979737e-02 5.821404990210343e-02 3.105098917160229e-02
            5.544017663761484e-01 -3.884277784257119e-01 5.369288992406698e-02 2.947506466267787e-02 5.822647134348884e-02 3.104386274724510e-02 7.032455856155903e-02 2.476588789072971e-02
318734778.9824854136 6.559901167107089e-02 3.604922903082254e-02 6.952787106571480e-02 3.549774571920086e-02 5.495224358626815e-02 1.985002350676366e-02 4.854611309283850e-01 -4.697188338565096e-01
            6.959119623571620e-02 3.533211665006500e-02 6.563792123847040e-02 3.600556441914215e-02 4.853608524161675e-01 -4.696373898169818e-01 5.502187934716594e-02 1.994000575427810e-02
            5.495530779550397e-02 1.993962754206209e-02 4.854647340074907e-01 -4.696699364495285e-01 8.173232610188151e-02 3.006285644966701e-02 6.995793069829555e-02 3.631924900662547e-02
            4.854802076447664e-01 -4.696786728478065e-01 5.490847371916199e-02 1.993331774478065e-02 6.990808421474713e-02 3.635160267663561e-02 8.177349328805521e-02 3.009864084268056e-02
319234361.9683068991 8.030358346209018e-02 3.659818929930411e-02 8.236404247520204e-02 3.653663549668079e-02 5.491417645351866e-02 1.112048598488458e-02 4.051088634817410e-01 -5.385045512075737e-01
            8.231102655533890e-02 3.650877616995970e-02 8.028436954703526e-02 3.665870618626486e-02 4.050801708880091e-01 -5.385076208512729e-01 5.496630640249951e-02 1.110836508086781e-02
            5.488552782317402e-02 1.107912491251423e-02 4.051044290194086e-01 -5.385143616166094e-01 9.403816693359324e-02 3.155305407683669e-02 8.252001358094542e-02 3.758958485589452e-02
            4.051031051566197e-01 -5.384640767913953e-01 5.502742149785941e-02 1.110437490798396e-02 8.247557566456720e-02 3.759620546637463e-02 9.416148599472550e-02 3.148920432418423e-02
319733944.9541284442 9.432963427568569e-02 3.257976078563093e-02 9.462948623654986e-02 3.344234945460049e-02 5.401581222132951e-02 3.063633846764088e-03 3.155671396851669e-01 -5.934252498604683e-01
            9.460438698625614e-02 3.340758260744321e-02 9.438541525455756e-02 3.261523774827826e-02 3.155665064925463e-01 -5.935078211014813e-01 5.404260487987673e-02 3.138154347933373e-03
            5.393141918793422e-02 3.075219226832796e-03 3.156312986443266e-01 -5.935333390387786e-01 1.061365348074033e-01 2.901690207061934e-02 9.460718093287177e-02 3.502849456666175e-02
            3.156428738927639e-01 -5.935082739322391e-01 5.402535779545720e-02 3.122526661203422e-03 9.466396438275382e-02 3.502499196526423e-02 1.061557738528372e-01 2.903857823057667e-02
320233527.9399499893 1.064793662362307e-01 2.437567550831348e-02 1.051731336861284e-01 2.672033046772000e-02 5.246820991238513e-02 -4.411189747772292e-03 2.193090684549134e-01 -6.338301360495086e-01
            1.051879465226207e-01 2.665909041649179e-02 1.065079396539862e-01 2.439082298293038e-02 2.193667004483103e-01 -6.338101723733539e-01 5.241154151906716e-02 -4.373265557495811e-03
            5.239064560813683e-02 -4.341328800091779e-03 2.193845684728937e-01 -6.337510560493816e-01 1.168728558861291e-01 2.306738882930186e-02 1.052200873263382e-01 2.882246800961483e-02
            2.193362693212794e-01 -6.337756347649117e-01 5.244227777222514e-02 -4.363425720976617e-03 1.051636891065013e-01 2.886729644431684e-02 1.168277477015043e-01 2.305668361032499e-02
320733110.9257714748 1.154538131140601e-01 1.271176130174903e-02 1.129776888356210e-01 1.689079298119281e-02 5.024977004630975e-02 -1.144075864663966e-02 1.187166064045399e-01 -6.588534007724656e-01
            1.131334205091684e-01 1.695239595433023e-02 1.154645082004601e-01 1.282154231956381e-02 1.187567871709904e-01 -6.587890448828063e-01 5.032538488634924e-02 -1.149707700309487e-02
            5.029413715011286e-02 -1.150580416308445e-02 1.187585466176726e-01 -6.588367047343182e-01 1.252227740166029e-01 1.421960300625471e-02 1.132503141539495e-01 1.987846743758872e-02
            1.187070899304272e-01 -6.587368377731998e-01 5.041060612788091e-02 -1.144636993332650e-02 1.132431392519597e-01 1.983979727214165e-02 1.252975238236851e-01 1.419017320127770e-02
321232693.9115930200 1.206285630669435e-01 -1.018474272734289e-03 1.174741347153371e-01 5.254759103581033e-03 4.764225249553378e-02 -1.832953699955378e-02 1.597672403016779e-02 -6.683198313458217e-01
            1.175091667325827e-01 5.194478085770550e-03 1.206418609888367e-01 -1.084538803594962e-03 1.594972658493447e-02 -6.683730913787027e-01 4.766241713269609e-02 -1.853978780127494e-02
            4.762491024941661e-02 -1.842202046399798e-02 1.600847876254824e-02 -6.683531784182524e-01 1.306557384860093e-01 3.392936354212435e-03 1.180696762497187e-01 8.959784218304227e-03
            1.594168364653270e-02 -6.683849984063831e-01 4.767177184665525e-02 -1.838108105933867e-02 1.180406483172248e-01 9.067675558844576e-03 1.306951139126808e-01 3.312855572767180e-03
321732276.8974145055 1.214411951916899e-01 -1.600778216381742e-02 1.180681599031506e-01 -7.333805750638530e-03 4.411647180280321e-02 -2.532451121527577e-02 -8.680068913737268e-02 -6.623457118309083e-01
            1.181253200346531e-01 -7.348053082317267e-03 1.214844303468505e-01 -1.601663941338563e-02 -8.681660613318179e-02 -6.623840861938977e-01 4.406807075349933e-02 -2.520737787310493e-02
            4.411172175098069e-02 -2.532980770204913e-02 -8.675844929973602e-02 -6.624418273699294e-01 1.326834152578640e-01 -8.653704612259807e-03 1.193787549119383e-01 -2.653915081185870e-03
            -8.676188316074744e-02 -6.623197760132827e-01 4.422214660817550e-02 -2.531393169430944e-02 1.193632300425380e-01 -2.694598386357486e-03 1.326838325335531e-01 -8.578077530621590e-03
322231859.8832360506 1.177715823641924e-01 -3.061164833459771e-02 1.147691313092977e-01 -1.961321864355305e-02 3.958900114603107e-02 -3.191268818095404e-02 -1.873995428565718e-01 -6.411723836882632e-01
            1.147016764827112e-01 -1.961605187345524e-02 1.176688989720130e-01 -3.057959982460807e-02 -1.874670347753356e-01 -6.411847714698662e-01 3.959304449728728e-02 -3.203951211559516e-02
            3.958827682751957e-02 -3.195195382935734e-02 -1.875061575705649e-01 -6.411676169638068e-01 1.311463191027191e-01 -2.047825748425400e-02 1.170405247361154e-01 -1.408501145701948e-02
            -1.875440881403541e-01 -6.412129095938985e-01 3.959891551317442e-02 -3.199091057695367e-02 1.169763970339334e-01 -1.406117746996130e-02 1.310452458828756e-01 -2.053809993969092e-02
322731442.8690575361 1.097276874795449e-01 -4.373117787804275e-02 1.078247551913002e-01 -3.046833614770988e-02 3.370057320086180e-02 -3.815426126235204e-02 -2.838925211117962e-01 -6.052074013526896e-01
            1.077568773310213e-01 -3.054221374221538e-02 1.098649990953072e-01 -4.370008656714698e-02 -2.839085328793743e-01 -6.052348962609689e-01 3.370688226898205e-02 -3.819662521678783e-02
            3.376821684646106e-02 -3.819025120590379e-02 -2.838582295264555e-01 -6.051632661738267e-01 1.261766606612647e-01 -3.142541679461353e-02 1.114389399207969e-01 -2.413609900867055e-02
            -2.839588023847788e-01 -6.051930196512444e-01 3.367853793794933e-02 -3.820197702401421e-02 1.114408008500762e-01 -2.407027896397036e-02 1.261689316712612e-01 -3.136884237246956e-02
323231025.8548790812 9.827161631539219e-02 -5.401939121253592e-02 9.760515851402854e-02 -3.880780142523138e-02 2.646933795497115e-02 -4.357575262893280e-02 -3.742011463619404e-01 -5.549674691053038e-01
            9.760811304345987e-02 -3.880195772866853e-02 9.823613975990514e-02 -5.406726865886472e-02 -3.742009276604698e-01 -5.549058889390832e-01 2.647653750564661e-02 -4.356459647843220e-02
            2.652390755668299e-02 -4.363287415878406e-02 -3.742210779295329e-01 -5.548607853060186e-01 1.182325815989071e-01 -4.041022027161349e-02 1.030259744328603e-01 -3.199227013291957e-02
            -3.741334196291170e-01 -5.548965773462557e-01 2.654240278463305e-02 -4.353850569487278e-02 1.030524580278423e-01 -3.196258273643005e-02 1.183150372106296e-01 -4.031734044593736e-02
323730608.8407005668 8.402763442860794e-02 -6.066983087880362e-02 8.518036026875100e-02 -4.380910586538474e-02 1.798993473946063e-02 -4.768334790377765e-02 -4.561945377385265e-01 -4.912407570225621e-01
            8.527943489495052e-02 -4.380407638771067e-02 8.412780183613448e-02 -6.074529833332069e-02 -4.562393039944988e-01 -4.912890822308658e-01 1.797761730035203e-02 -4.759427957451344e-02
            1.796160288523612e-02 -4.759894906095493e-02 -4.561737163428012e-01 -4.913525528988988e-01 1.083198075125745e-01 -4.671285789992309e-02 9.269487122897922e-02 -3.680327291887469e-02
            -4.561603789946331e-01 -4.912287436618298e-01 1.796268095941901e-02 -4.765768432803739e-02 9.275912316048812e-02 -3.680101904888770e-02 1.083392965329802e-01 -4.673898040946812e-02
324230191.8265221119 6.848671538184503e-02 -6.293441908051055e-02 7.172782547960334e-02 -4.487392060456846e-02 8.487159523379306e-03 -4.983835432946195e-02 -5.279975527866775e-01 -4.154022260147918e-01
            7.176978856046247e-02 -4.494559317021492e-02 6.838612783981950e-02 -6.286545779396281e-02 -5.279294118200633e-01 -4.153571068413658e-01 8.548037221918395e-03 -4.986061187701156e-02
            8.492918765462123e-03 -4.993900276605278e-02 -5.279013853607814e-01 -4.153880789276704e-01 9.704393165545024e-02 -4.956425875514070e-02 8.136922112807085e-02 -3.818427023340257e-02
            -5.278760981915458e-01 -4.153470866910060e-01 8.418605933743563e-03 -4.988238447540018e-02 8.143032995653658e-02 -3.819585496634684e-02 9.705314138974221e-02 -4.969820609190081e-02
324729774.8123435974 5.275555681489026e-02 -6.041831118394549e-02 5.820774132062951e-02 -4.191222956909373e-02 -1.558649843158941e-03 -4.996993180701481e-02 -5.873729964943574e-01 -3.287793355172232e-01
            5.816576778995733e-02 -4.184682306101808e-02 5.271293696825200e-02 -6.045080731102143e-02 -5.873357430612859e-01 -3.287903387789731e-01 -1.514379214012563e-03 -4.997034275069918e-02
            -1.493585466432157e-03 -5.002730427284598e-02 -5.873988140484968e-01 -3.287750862570685e-01 8.552334842024037e-02 -4.905347723784060e-02 7.031901889249131e-02 -3.598261710027695e-02
            -5.874315294497966e-01 -3.287561354218907e-01 -1.520262364292193e-03 -5.004544486043219e-02 7.031944955848507e-02 -3.595474856623924e-02 8.549292339213412e-02 -4.909337495553865e-02
325229357.7981651425 3.843980250814300e-02 -5.349553217237533e-02 4.607888313433134e-02 -3.475624691600588e-02 -1.133785818560952e-02 -4.774084247012996e-02 -6.328019549435041e-01 -2.333359647202402e-01
            4.618178417997675e-02 -3.474161305276054e-02 3.844586094201569e-02 -5.341461092639462e-02 -6.328675613481863e-01 -2.331975620581654e-01 -1.132080631878753e-02 -4.767392546034473e-02
            -1.141053037936136e-02 -4.771223837847203e-02 -6.327516627751758e-01 -2.332765507567776e-01 7.495085515130408e-02 -4.506232251924655e-02 6.060271614765849e-02 -3.038800081630645e-02
            -6.328084515682528e-01 -2.332669810866305e-01 -1.137536063388148e-02 -4.772511743690269e-02 6.064540441168274e-02 -3.042116738545732e-02 7.485556688676938e-02 -4.515681327668424e-02
325728940.7839866877 2.686713699788301e-02 -4.266074136941413e-02 3.658847053070946e-02 -2.421747386237816e-02 -2.036118220521437e-02 -4.324456218997359e-02 -6.627417689209759e-01 -1.311545122652845e-01
            3.657213004217373e-02 -2.423057289005886e-02 2.681391588647815e-02 -4.267752740452993e-02 -6.625637846389038e-01 -1.312948728435347e-01 -2.033621463992591e-02 -4.322454155552261e-02
            -2.031232668557129e-02 -4.323115364784104e-02 -6.626755590397214e-01 -1.312273065813226e-01 6.615154321950777e-02 -3.816519026677340e-02 5.331397324804197e-02 -2.211857781245089e-02
            -6.627164768353655e-01 -1.312675027311640e-01 -2.028465738335022e-02 -4.319633727265608e-02 5.333940256190371e-02 -2.212796989283090e-02 6.631654990175140e-02 -3.820570177808172e-02
326228523.7698081732 1.909033126185578e-02 -2.898699988430144e-02 3.063758038352640e-02 -1.126333227992848e-02 -2.774418706960947e-02 -3.682697028465983e-02 -6.757637918923619e-01 -2.524755591882458e-02
            3.065146543679700e-02 -1.120412971014324e-02 1.911672491253987e-02 -2.898521677266257e-02 -6.758034505283735e-01 -2.532822804044360e-02 -2.785265859187780e-02 -3.677439297058625e-02
            -2.781745827191931e-02 -3.684425674864543e-02 -6.758065879255853e-01 -2.521844665378728e-02 6.035803028464765e-02 -2.904630512537977e-02 4.912141996340470e-02 -1.197708041041491e-02
            -6.758074279063679e-01 -2.531969238294757e-02 -2.787234041212641e-02 -3.679275317264626e-02 4.914343378447470e-02 -1.192752324006954e-02 6.043561963093156e-02 -2.901839186725216e-02
326728106.7556297183 1.588087408684724e-02 -1.374617685332074e-02 2.890236930121907e-02 2.831171936095046e-03 -3.335634925916000e-02 -2.907791459635352e-02 -6.716662017800861e-01 8.165908766716513e-02
            2.889499406052295e-02 2.845719477931307e-03 1.585470272612770e-02 -1.383362481076537e-02 -6.716201965427575e-01 8.166939480806919e-02 -3.335745527632614e-02 -2.908624384023476e-02
            -3.335684244763305e-02 -2.905502888424743e-02 -6.716330138221349e-01 8.164334947763895e-02 5.795358682862668e-02 -1.894932444399559e-02 4.856464402241656e-02 -1.192933745762908e-03
            -6.716127121377105e-01 8.164297055527613e-02 -3.336004999816054e-02 -2.908598032070982e-02 4.852959093792390e-02 -1.159232577252787e-03 5.787744307044092e-02 -1.900180145736652e-02
327227689.7414512038 1.750904682912092e-02 1.354083875509968e-03 3.147002034987442e-02 1.662102879401851e-02 -3.669074924754757e-02 -2.076125937715663e-02 -6.501649831624989e-01 1.865602262248161e-01
            3.145574443170027e-02 1.664962850291570e-02 1.754275644618139e-02 1.389347321377519e-03 -6.502504538467272e-01 1.865505310435333e-01 -3.668293634600572e-02 -2.065491339133810e-02
            -3.669403727946120e-02 -2.070988965576018e-02 -6.502208416423914e-01 1.865647504530081e-01 5.884438530239543e-02 -8.749696201771040e-03 5.161856356340436e-02 9.052891027544474e-03
            -6.502513894444329e-01 1.865299693758489e-01 -3.673677227636594e-02 -2.067125408273511e-02 5.157781813010815e-02 9.092298356336341e-03 5.880668068915063e-02 -8.868823274360360e-03
327727272.7272727489 2.346363498701952e-02 1.489637124677722e-02 3.799153384015726e-02 2.891754779206132e-02 -3.792118725505071e-02 -1.233112968496764e-02 -6.121602909717770e-01 2.864675791280772e-01
            3.796617241703225e-02 2.894806981043837e-02 2.340641269495753e-02 1.485835299515859e-02 -6.121429580130388e-01 2.864762101576648e-01 -3.787129441037809e-02 -1.228931912652637e-02
            -3.792099568809528e-02 -1.225070410964754e-02 -6.121582027445523e-01 2.864028782371225e-01 6.284340991232182e-02 2.347977682524950e-05 5.779393902925307e-02 1.744617539664904e-02
            -6.122668455696458e-01 2.864650540889833e-01 -3.790624551519484e-02 -1.226526534514188e-02 5.780183149492773e-02 1.747276338833035e-02 6.295007844032245e-02 4.977531946499804e-05
328226855.7130942345 3.308660479091795e-02 2.552456624292603e-02 4.767070358058676e-02 3.839466129145428e-02 -3.731497385940197e-02 -4.486571546461289e-03 -5.588214410340280e-01 3.786707563134630e-01
            4.769533059756459e-02 3.835791654210198e-02 3.309055334292255e-02 2.553793120648844e-02 -5.588301081775217e-01 3.786308342202159e-01 -3.723524259143412e-02 -4.497309809781334e-03
            -3.735704765394134e-02 -4.504127474416652e-03 -5.588054530270472e-01 3.786713347441800e-01 6.957993208586359e-02 6.755786147782154e-03 6.630088567114187e-02 2.325171293156871e-02
            -5.587943706760535e-01 3.786102973112525e-01 -3.725911910875779e-02 -4.530396525677670e-03 6.643729496051547e-02 2.321238603537690e-02 6.961770623344694e-02 6.743622886251264e-03
328726438.6989157796 4.523849439024052e-02 3.246103401315757e-02 5.949442065309302e-02 4.431910653214519e-02 -3.531842541104888e-02 2.387979630681226e-03 -4.917312789262320e-01 4.607656318241732e-01
            5.953142891983495e-02 4.433249636649647e-02 4.525364228344350e-02 3.240930747613222e-02 -4.916479505586115e-01 4.607417098292300e-01 -3.532602813389790e-02 2.424944435589180e-03
            -3.528347119971017e-02 2.329853449387305e-03 -4.916610800946791e-01 4.607932165536151e-01 7.795889514619049e-02 1.077248057271397e-02 7.627413005741607e-02 2.567029237291673e-02
            -4.916932525047293e-01 4.608187412326817e-01 -3.527221358799323e-02 2.351501076180491e-03 7.624533639612578e-02 2.559779861483339e-02 7.789193180115916e-02 1.075908085677765e-02
329226021.6847372651 5.843013404417540e-02 3.503155977156902e-02 7.208849557950373e-02 4.637574453783675e-02 -3.234586945939232e-02 8.121569526378995e-03 -4.128994195076575e-01 5.309104921007709e-01
            7.209388283987272e-02 4.627778028198509e-02 5.845678921761679e-02 3.506341899280838e-02 -4.129001906809129e-01 5.308885973425398e-01 -3.242310101306446e-02 8.141075018718705e-03
            -3.240712464721725e-02 8.085439420543865e-03 -4.128345360235848e-01 5.309368418148080e-01 8.690968781760865e-02 1.169637342189149e-02 8.628830115266746e-02 2.455535083169456e-02
            -4.128836767102018e-01 5.309167058239816e-01 -3.235689525395159e-02 8.046819482992204e-03 8.629129002812831e-02 2.456140760562108e-02 8.696946263173896e-02 1.160278061288765e-02
329725604.6705588102 7.131793452327982e-02 3.320339994467202e-02 8.428949161239196e-02 4.436820891721409e-02 -2.877748416892234e-02 1.282920454191236e-02 -3.246042502418311e-01 5.875931967657637e-01
            8.421394509067184e-02 4.432943634573611e-02 7.129590825903971e-02 3.326415884711176e-02 -3.245701551477990e-01 5.875634095859207e-01 -2.897239700448994e-02 1.282315204258342e-02
            -2.889536736062230e-02 1.278807043548519e-02 -3.245494148479987e-01 5.876089266486616e-01 9.555423916056502e-02 9.424758264927821e-03 9.531623879375339e-02 1.993952815009352e-02
            -3.246631699347082e-01 5.876443832635185e-01 -2.900064414834195e-02 1.282018954467424e-02 9.530767073867526e-02 2.008488267874665e-02 9.551577979321060e-02 9.315715492622058e-03
330225187.6563802958 8.273643871650306e-02 2.758497023991687e-02 9.470535196378128e-02 3.907696416072975e-02 -2.527287984457299e-02 1.670811292930827e-02 -2.291977082679935e-01 6.298176885683834e-01
            9.466932259946330e-02 3.894349047458494e-02 8.275235796057537e-02 2.752881125294546e-02 -2.291177159730294e-01 6.297856733081643e-01 -2.521913275403276e-02 1.667823562746179e-02
            -2.520405046053611e-02 1.674740342711970e-02 -2.291731758417177e-01 6.298533086950596e-01 1.026570028303549e-01 4.434510715154321e-03 1.021072217274865e-01 1.269504507749896e-02
            -2.291104062546059e-01 6.297851686384992e-01 -2.519922531586425e-02 1.671586002779971e-02 1.021209647014256e-01 1.269891987448880e-02 1.027350655400290e-01 4.383235337289041e-03
330724770.6422018409 9.146668231785980e-02 1.863461315276388e-02 1.027023373108185e-01 3.092357052041030e-02 -2.143800988171974e-02 1.996408744706530e-02 -1.288268290930341e-01 6.568590369214679e-01
            1.027125030873645e-01 3.086049636604037e-02 9.140328624824663e-02 1.864795794589338e-02 -1.287751556729730e-01 6.568249319267535e-01 -2.141528598628922e-02 1.990054796079189e-02
            -2.138851581141641e-02 1.987216775297262e-02 -1.288224106998154e-01 6.567855997991180e-01 1.078692312705210e-01 -2.667576020640376e-03 1.061910342890717e-01 3.430895775767132e-03
            -1.287755236149026e-01 6.568468060442043e-01 -2.137254265001605e-02 1.996391126008390e-02 1.062612024787036e-01 3.423316631442095e-03 1.078826647792974e-01 -2.722999852812622e-03
331224353.6280233860 9.666576754734979e-02 7.628044142497794e-03 1.074726089426859e-01 2.108334226640556e-02 -1.746336681319477e-02 2.272042007955919e-02 -2.581379098524558e-02 6.682714521343373e-01
            1.074342369829796e-01 2.108556335249177e-02 9.671323914188436e-02 7.645890792780231e-03 -2.579098545222383e-02 6.683531873264331e-01 -1.733912680005211e-02 2.283505096712193e-02
            -1.738080464660482e-02 2.272570333661516e-02 -2.582305508764455e-02 6.683123953228092e-01 1.103785192623235e-01 -1.108926238469472e-02 1.068179624697792e-01 -6.885097353024673e-03
            -2.578340236101063e-02 6.683293773863664e-01 -1.737318472660739e-02 2.267913040338061e-02 1.068409273979388e-01 -6.864479101026034e-03 1.103477486056709e-01 -1.111396435667627e-02
331723936.6138448715 9.795161180154278e-02 -4.468523876549124e-03 1.087192455773724e-01 1.060334272859491e-02 -1.312525016117399e-02 2.515065409655837e-02 7.767185193567151e-02 6.640636380948081e-01
            1.087430288655497e-01 1.068117491799899e-02 9.799694948182931e-02 -4.519854489902417e-03 7.764869318535829e-02 6.640982774351929e-01 -1.303028469000220e-02 2.516198754034984e-02
            -1.306034093671384e-02 2.512322081954156e-02 7.762329821291003e-02 6.640320610701842e-01 1.099782539219703e-01 -1.998010388165709e-02 1.040036970308146e-01 -1.702207270579505e-02
            7.763509994528855e-02 6.640156495853251e-01 -1.307939809617627e-02 2.504415353814045e-02 1.040234705784525e-01 -1.704299441758671e-02 1.099244120097689e-01 -1.986633653507814e-02
332223519.5996664166 9.523400784125804e-02 -1.633711965703506e-02 1.063705827135048e-01 5.405426655617446e-04 -8.305190692779333e-03 2.704702951757379e-02 1.792483702680412e-01 6.443091634619554e-01
            1.063946093367744e-01 5.877899576161958e-04 9.533467300751507e-02 -1.640613708885755e-02 1.793582888290959e-01 6.442275535479977e-01 -8.306093953711725e-03 2.707289057439405e-02
            -8.338823479787479e-03 2.701319259988768e-02 1.792407241712681e-01 6.442101719293355e-01 1.067639809313304e-01 -2.825738073881113e-02 9.772675029676631e-02 -2.594391857773860e-02
            1.792902681296629e-01 6.442401685773002e-01 -8.351235293234694e-03 2.704897937844106e-02 9.785979248154746e-02 -2.595907463051712e-02 1.067343749226830e-01 -2.827842099130188e-02
332723102.5854879022 8.878643846667214e-02 -2.693314961481328e-02 1.009177255266579e-01 -7.840356800722667e-03 -2.937932141204112e-03 2.840516334810964e-02 2.769040999892123e-01 6.092092865610859e-01
            1.009593962552390e-01 -7.832891317590612e-03 8.877956405564914e-02 -2.690531694193840e-02 2.769577268785297e-01 6.092271792056763e-01 -2.977728155832794e-03 2.837612835694465e-02
            -2.976871743865783e-03 2.836098289334740e-02 2.769755327334254e-01 6.091628532544741e-01 1.009506881713138e-01 -3.519449097925255e-02 8.873348570401042e-02 -3.263828171427569e-02
            2.769345870885688e-01 6.091485462055328e-01 -3.015610335805774e-03 2.834399910029971e-02 8.869428175181412e-02 -3.265119863238451e-02 1.009134717256573e-01 -3.515555335412078e-02
333222685.5713094473 7.906739335852346e-02 -3.475057087612361e-02 9.296031621490639e-02 -1.386589585596299e-02 2.889147424968472e-03 2.870534565830549e-02 3.684590915506784e-01 5.594315185600925e-01
            9.298624868031152e-02 -1.385761107463335e-02 7.917094565554199e-02 -3.488069264130216e-02 3.684468416149566e-01 5.594422629629121e-01 2.885307893792265e-03 2.874741713366763e-02
            2.882617232064464e-03 2.868849638995200e-02 3.685172374505182e-01 5.594124752656544e-01 9.309474263635727e-02 -4.011246422223556e-02 7.754894542577816e-02 -3.621077393802371e-02
            3.684446121126891e-01 5.594699858723704e-01 2.951870950836948e-03 2.874325935268465e-02 7.761715373792755e-02 -3.620297881729004e-02 9.310772846638651e-02 -4.004342883891024e-02
333722268.5571309328 6.725266471252399e-02 -3.941455765951699e-02 8.332051156545338e-02 -1.658014824166103e-02 9.130697474341157e-03 2.784758945554080e-02 4.516715459575754e-01 4.959730632504467e-01
            8.334053755780366e-02 -1.657124574715549e-02 6.724064938964813e-02 -3.933285274864485e-02 4.516400462076850e-01 4.959199597142844e-01 9.122836935232519e-03 2.772482247448623e-02
            9.174025299938939e-03 2.785629098646263e-02 4.515208253462612e-01 4.960230536849404e-01 8.399003026160425e-02 -4.220903970333917e-02 6.539527574447522e-02 -3.604722278905019e-02
            4.515646194232857e-01 4.959777458473772e-01 9.121535978948820e-03 2.781287618607845e-02 6.541452952853964e-02 -3.616807939190184e-02 8.390667665540776e-02 -4.228294039722351e-02
334221851.5429524779 5.429334585502422e-02 -3.991821877139909e-02 7.324175848245983e-02 -1.578797366700155e-02 1.548156286070409e-02 2.532761912289677e-02 5.242139274774802e-01 4.198814895987417e-01
            7.328930015910717e-02 -1.572534133213093e-02 5.431132882263631e-02 -3.997098046257755e-02 5.241902611619820e-01 4.199779418014343e-01 1.545451998742097e-02 2.528293779688529e-02
            1.536754312122675e-02 2.538308129801742e-02 5.242330751123437e-01 4.199048541413609e-01 7.455315765650633e-02 -4.132561023244490e-02 5.346858865985578e-02 -3.206933646076899e-02
            5.242384497959719e-01 4.199167987501455e-01 1.543936833915607e-02 2.537687722273468e-02 5.342626015957409e-02 -3.209775700367702e-02 7.462377707333491e-02 -4.132891534364366e-02
334721434.5287739635 4.148127276882958e-02 -3.635760891997545e-02 6.393014408205941e-02 -1.134709253234850e-02 2.120198445621682e-02 2.122255558794410e-02 5.842416249856008e-01 3.329283266095795e-01
            6.395740820795902e-02 -1.133718151955908e-02 4.151682500485189e-02 -3.637522425442498e-02 5.841736871173573e-01 3.329832168979437e-01 2.117074929901880e-02 2.122166987250150e-02
            2.118458503573754e-02 2.116766612034198e-02 5.841918400325814e-01 3.329895440088491e-01 6.585332290169725e-02 -3.748601030957734e-02 4.290799219703904e-02 -2.424777827846920e-02
            5.841782244118506e-01 3.329988369517332e-01 2.116405618556840e-02 2.126627059698087e-02 4.283260613147115e-02 -2.413458986017603e-02 6.584227869964020e-02 -3.745238023072587e-02
335221017.5145955086 3.038501087279885e-02 -2.888501725028307e-02 5.641835182844973e-02 -3.591754660581511e-03 2.594229893800280e-02 1.560851146132335e-02 6.297678756874451e-01 2.372243279790232e-01
            5.640924830052453e-02 -3.570174084699344e-03 3.032973894533603e-02 -2.892546409584267e-02 6.297889514878577e-01 2.372581791126014e-01 2.596851478124957e-02 1.566454292704840e-02
            2.601629554636310e-02 1.561623096875950e-02 6.297459263270141e-01 2.372263421510807e-01 5.893892841502845e-02 -3.098703319199062e-02 3.504187565172048e-02 -1.315794621623722e-02
            6.298144290193258e-01 2.372218373755008e-01 2.598236033778933e-02 1.552673335768466e-02 3.502515102201535e-02 -1.314807671878936e-02 5.885333350484968e-02 -3.104396389376826e-02
335720600.5004169941 2.185023638762794e-02 -1.820557572042368e-02 5.191229808667594e-02 6.476000145037347e-03 2.909887041494607e-02 8.686760013246796e-03 6.595076042983694e-01 1.350343736470614e-01
            5.197736831304641e-02 6.509069430708023e-03 2.186676943799958e-02 -1.819090613676492e-02 6.595634332648617e-01 1.350461035406684e-01 2.917570759720346e-02 8.701776915133576e-03
            2.917105001401626e-02 8.705455087410323e-03 6.595369424945806e-01 1.350001353215592e-01 5.423699659503275e-02 -2.267967013545094e-02 3.080136341123475e-02 1.964675513251488e-04
            6.594676231335823e-01 1.350785133078063e-01 2.920196540793114e-02 8.769253389928426e-03 3.077034651161638e-02 1.554525239174462e-04 5.415060067374130e-02 -2.269967567562647e-02
336220183.4862385392 1.706801998564914e-02 -5.306921263566181e-03 5.113531507910468e-02 1.799753181198666e-02 3.045857684655120e-02 1.238564935779573e-03 6.723671186421596e-01 2.937290529640282e-02
            5.113676973708034e-02 1.796608883769712e-02 1.706302371279035e-02 -5.342857240482996e-03 6.723581719801494e-01 2.934419308522459e-02 3.045818680568629e-02 1.210873563063410e-03
            3.039391745466273e-02 1.236383268450124e-03 6.723279072250696e-01 2.931808164131218e-02 5.263590054105363e-02 -1.329177617731268e-02 3.066067647998093e-02 1.452410365246670e-02
            6.722998293655130e-01 2.941923882610906e-02 3.037870472307797e-02 1.163576715986959e-03 3.067090794900416e-02 1.457245068631828e-02 5.266178459266045e-02 -1.329437560268858e-02
336719766.4720600843 1.638855415973053e-02 8.348999641615258e-03 5.428484548116098e-02 2.953436649039022e-02 2.955143931578067e-02 -6.399889595737304e-03 6.679702237129734e-01 -7.702117805855915e-02
            5.425545686354784e-02 2.948919390272231e-02 1.629783577379215e-02 8.361314458293355e-03 6.679939395128129e-01 -7.698918581408877e-02 2.960092414122420e-02 -6.380212971433809e-03
            2.959670823996611e-02 -6.439437260884625e-03 6.679869640311330e-01 -7.697667678217303e-02 5.419621092811115e-02 -4.067419288812778e-03 3.495303597403620e-02 2.864813816655319e-02
            6.678997781326603e-01 -7.692383973033086e-02 2.955527774246176e-02 -6.417903234608468e-03 3.506359272837813e-02 2.863013279573859e-02 5.427524926754374e-02 -4.016648733395461e-03
337219349.4578815699 1.984033684862792e-02 2.156018851948758e-02 6.112958824896969e-02 3.975283032863961e-02 2.683267509267218e-02 -1.338510805731827e-02 6.464561020735475e-01 -1.808757192782267e-01
            6.119650599096529e-02 3.977223370067475e-02 1.981998125471187e-02 2.144369649194893e-02 6.465404206289909e-01 -1.808426994137381e-01 2.679989611983431e-02 -1.338207213588803e-02
            2.675881337331656e-02 -1.338218585496671e-02 6.465454808907939e-01 -1.808647035752902e-01 5.887956817715054e-02 4.039395194332697e-03 4.347711995464793e-02 4.091571949912537e-02
            6.465157051699284e-01 -1.808226714512306e-01 2.677274637097738e-02 -1.343079770730781e-02 4.346642926980494e-02 4.091897437214199e-02 5.883249603723294e-02 4.001929134157876e-03
337718932.4437031150 2.691443901389434e-02 3.278911064650916e-02 7.124589742993208e-02 4.750275576766334e-02 2.235603100239054e-02 -1.924828482627249e-02 6.088851629856066e-01 -2.796045314920387e-01
            7.127649475423026e-02 4.739324952376166e-02 2.696977969469268e-02 3.283409067772609e-02 6.088052986121959e-01 -2.796668145791267e-01 2.238970292189612e-02 -1.925964255760996e-02
            2.243981493734472e-02 -1.926253680768317e-02 6.088410494587090e-01 -2.795394595357913e-01 6.568599945191890e-02 1.010682783124839e-02 5.526981528774494e-02 5.024907979041913e-02
            6.089017098496996e-01 -2.795580102519982e-01 2.241288419675446e-02 -1.924855467799199e-02 5.529766266169590e-02 5.027280467732318e-02 6.565080426408949e-02 1.009700257191030e-02
338218515.4295246005 3.705005644364851e-02 4.130817808154211e-02 8.355542320935230e-02 5.185426911343103e-02 1.685540289830573e-02 -2.371886614757978e-02 5.562236201454689e-01 -3.704874030572173e-01
            8.351420289505504e-02 5.191643765688059e-02 3.697680217419160e-02 4.126585736025172e-02 5.563239774534514e-01 -3.705527236077170e-01 1.690075540014698e-02 -2.352030571969987e-02
            1.696526277422099e-02 -2.357973956042145e-02 5.563444221853706e-01 -3.705673323267344e-01 7.412714262804269e-02 1.332862870098905e-02 6.938626382239528e-02 5.568568213122183e-02
            5.563503514033274e-01 -3.705749845251448e-01 1.691071383826334e-02 -2.345689152427787e-02 6.939285517659532e-02 5.572229361646929e-02 7.414726795108954e-02 1.330292761081889e-02
338718098.4153461456 4.879355889996984e-02 4.625527132298887e-02 9.687126511650182e-02 5.233576121716775e-02 1.080820579256806e-02 -2.622295776753101e-02 4.904969312157302e-01 -4.515142743400025e-01
            9.678061955058144e-02 5.237764168629040e-02 4.884890308588477e-02 4.629228031259676e-02 4.905480371300497e-01 -4.516187113780419e-01 1.087681372557944e-02 -2.623853806783742e-02
            1.091562088612875e-02 -2.623995197619154e-02 4.904319272916191e-01 -4.516158047240550e-01 8.304965743402694e-02 1.351950504223593e-02 8.446571621682267e-02 5.691905871815336e-02
            4.904499789402694e-01 -4.515116022582042e-01 1.086887406153633e-02 -2.616440396259266e-02 8.444188176041185e-02 5.682842974161746e-02 8.302911151628241e-02 1.355706015414282e-02
339217681.4011676311 6.115936344712863e-02 4.738709080449647e-02 1.098989415307956e-01 4.891701193181689e-02 4.843909071619619e-03 -2.735935999188488e-02 4.135019234775946e-01 -5.209866922649152e-01
            1.098275387750867e-01 4.888520131987419e-02 6.116065011678858e-02 4.746326945282799e-02 4.135035976682487e-01 -5.209305866964090e-01 4.809917877248745e-03 -2.729558330594423e-02
            4.786316459810417e-03 -2.734341588424871e-02 4.135152669903224e-01 -5.209853070353480e-01 9.146313369288030e-02 1.066998971743645e-02 9.920479292320597e-02 5.364022486997739e-02
            4.135208536099895e-01 -5.208965620438502e-01 4.834631220448190e-03 -2.736772017633573e-02 9.928191953114421e-02 5.368081460252893e-02 9.147655955620863e-02 1.063675993650691e-02
339717264.3869891763 7.275371933032908e-02 4.492291384758229e-02 1.214722934414293e-01 4.161941228222605e-02 -8.242090690666295e-04 -2.720075689585836e-02 3.271821636848521e-01 -5.773336104701002e-01
            1.214347440701727e-01 4.161370298946217e-02 7.285194849060289e-02 4.487099094978576e-02 3.272348330705507e-01 -5.773292367685717e-01 -7.376469083561523e-04 -2.717665310697936e-02
            -8.753750936929723e-04 -2.712613313501788e-02 3.272266378410889e-01 -5.774078124518889e-01 9.841914658131862e-02 5.218466184252764e-03 1.122495603875025e-01 4.624855470274378e-02
            3.272563602809721e-01 -5.773371417891440e-01 -7.880022649606669e-04 -2.713639116779152e-02 1.123330378062561e-01 4.620094227639557e-02 9.846647772322015e-02 5.257582325291504e-03
340216847.3728106618 8.283505543970970e-02 3.902485005466839e-02 1.305014756359349e-01 3.124447832712904e-02 -5.862030580976606e-03 -2.606437372495095e-02 2.338775470526797e-01 -6.198563910966062e-01
            1.304978179059209e-01 3.119876199984252e-02 8.296452449188828e-02 3.906808122388630e-02 2.339748677554639e-01 -6.199040854144169e-01 -5.875958412352209e-03 -2.609874394918552e-02
            -5.880603251386457e-03 -2.602109647233881e-02 2.339284092332435e-01 -6.199124907036360e-01 1.032335596581225e-01 -2.286448444098867e-03 1.226884238251554e-01 3.552909312217990e-02
            2.338757775287825e-01 -6.198993543047722e-01 -5.873949876145809e-03 -2.611887975401217e-02 1.226612130591382e-01 3.544270106986586e-02 1.032106415746517e-01 -2.356828193706437e-03
340716430.3586322069 9.043203198107229e-02 3.065153481289541e-02 1.362760153393339e-01 1.854530672689470e-02 -1.024744463641191e-02 -2.435749474935974e-02 1.356636986889355e-01 -6.476589511414116e-01
            1.362273329525378e-01 1.864358804972932e-02 9.035901491198628e-02 3.063404194905296e-02 1.356906899603555e-01 -6.477126616568851e-01 -1.031369632039710e-02 -2.437286348149172e-02
            -1.024285942928599e-02 -2.439140384681155e-02 1.356701216524897e-01 -6.476642233506124e-01 1.053007864504160e-01 -1.117255358109495e-02 1.294419428923115e-01 2.232948166572264e-02
            1.356793406324349e-01 -6.476951406325857e-01 -1.028952899426443e-02 -2.441356426514304e-02 1.294194777472628e-01 2.235184463041846e-02 1.053576561501542e-01 -1.113472164612888e-02
341216013.3444536924 9.471989958474505e-02 2.063613411322992e-02 1.382462261259480e-01 4.889532955689098e-03 -1.420530225430578e-02 -2.236386357275836e-02 3.449942859600745e-02 -6.604061617483558e-01
            1.381885175691343e-01 4.897171461099154e-03 9.467323075868445e-02 2.067693427272472e-02 3.446360159638541e-02 -6.604331502665395e-01 -1.424678625685270e-02 -2.236703670121276e-02
            -1.418141469288767e-02 -2.234867625767846e-02 3.449408528081875e-02 -6.604282130208862e-01 1.044356350693554e-01 -2.032121097807783e-02 1.321496461605570e-01 7.919287622941062e-03
            3.444312081200560e-02 -6.604653812635497e-01 -1.419036675994824e-02 -2.234658157861255e-02 1.321431772311385e-01 7.924344779495839e-03 1.042810346522875e-01 -2.021448478764307e-02
341715596.3302752376 9.552632688798852e-02 1.000270016734336e-02 1.361772770667794e-01 -8.810971229111913e-03 -1.779971041092211e-02 -2.010038536402696e-02 -6.739254944075512e-02 -6.578854128197590e-01
            1.361678460853940e-01 -8.850107552499906e-03 9.558089933724104e-02 1.001726981017804e-02 -6.748890855150139e-02 -6.578893414317364e-01 -1.777942749446213e-02 -2.011997833521858e-02
            -1.779174044303409e-02 -2.014504453618200e-02 -6.740086568633810e-02 -6.579350220327425e-01 1.004427069635341e-01 -2.896341826307676e-02 1.304631340975775e-01 -6.520616772905642e-03
            -6.737829403170384e-02 -6.580672616776007e-01 -1.785258891891176e-02 -2.011572483911668e-02 1.305281924291040e-01 -6.533213758638774e-03 1.004382440327561e-01 -2.893549711664359e-02
342215179.3160967827 9.288515272715030e-02 -1.279824385029400e-04 1.303400641907425e-01 -2.142344295073640e-02 -2.134857612274493e-02 -1.765121807457969e-02 -1.680291213225002e-01 -6.401920951678362e-01
            1.303132930968536e-01 -2.146931293465651e-02 9.292382198278762e-02 -1.333310609328798e-04 -1.680693363248615e-01 -6.401202753945232e-01 -2.120399338815420e-02 -1.763305742395896e-02
            -2.124774990706338e-02 -1.768132014567822e-02 -1.680887662363394e-01 -6.400557370998872e-01 9.383373918257334e-02 -3.614418475822247e-02 1.248052640546337e-01 -1.974794320782884e-02
            -1.680665423399856e-01 -6.401158840745353e-01 -2.130238397809905e-02 -1.764899137205839e-02 1.247445724800665e-01 -1.982296131944202e-02 9.378264650691311e-02 -3.618282936278633e-02
342714762.3019182682 8.702528306865370e-02 -8.741867539447782e-03 1.210766674994883e-01 -3.169661912770999e-02 -2.480045281874058e-02 -1.484287617881550e-02 -2.652060597515900e-01 -6.072386243995371e-01
            1.210694872800329e-01 -3.173201349561144e-02 8.710829499869155e-02 -8.744914568611427e-03 -2.652219454611649e-01 -6.073032780538876e-01 -2.476524318021216e-02 -1.477663694146970e-02
            -2.480977073222915e-02 -1.478338112966783e-02 -2.651322463677079e-01 -6.072348657732414e-01 8.495632067266223e-02 -4.106213524453444e-02 1.154842866453727e-01 -3.077259669229752e-02
            -2.652303128884855e-01 -6.072718721379631e-01 -2.477268078725842e-02 -1.481306712343214e-02 1.153957923298820e-01 -3.065999379971089e-02 8.501904129441730e-02 -4.119828044342448e-02
343214345.2877398133 7.874843434562484e-02 -1.479967186451471e-02 1.093102831100150e-01 -3.882296928765552e-02 -2.825591634595053e-02 -1.120549867941175e-02 -3.566135936022405e-01 -5.596801795915795e-01
            1.093789922491632e-01 -3.883846579700941e-02 7.864697508163893e-02 -1.487074323371857e-02 -3.565973570494715e-01 -5.596287146243342e-01 -2.831591036137213e-02 -1.126719493440975e-02
            -2.829226497857592e-02 -1.127170513796990e-02 -3.566168626634084e-01 -5.596686435637493e-01 7.469645827350208e-02 -4.310134568353417e-02 1.033440909267914e-01 -3.840881829224677e-02
            -3.566312817540057e-01 -5.597026639470449e-01 -2.826117242250146e-02 -1.119240909275400e-02 1.033434337549105e-01 -3.835690656080211e-02 7.462796657840733e-02 -4.310789723729404e-02
343713928.2735612988 6.858529350142474e-02 -1.772328146943318e-02 9.603696066395183e-02 -4.205948066968816e-02 -3.166945028578496e-02 -6.783286665264145e-03 -4.401172335204032e-01 -4.982238607406264e-01
            9.606203075240095e-02 -4.213236798261974e-02 6.859936054111565e-02 -1.770142246903348e-02 -4.400949120534970e-01 -4.982076135152617e-01 -3.158532818887481e-02 -6.695280179969403e-03
            -3.167751173938891e-02 -6.756206705169429e-03 -4.400818766449584e-01 -4.981898004614495e-01 6.380220566954613e-02 -4.185231581147318e-02 8.958512031853404e-02 -4.190345123753064e-02
            -4.401385547160103e-01 -4.982679995359488e-01 -3.171374114501072e-02 -6.697969942768227e-03 8.955923988610996e-02 -4.178664966352867e-02 6.385835997118382e-02 -4.185382995473730e-02
344213511.2593828440 5.804647206888344e-02 -1.709588864244163e-02 8.242724541289292e-02 -4.124533438204588e-02 -3.454953986873224e-02 -1.098861191640548e-03 -5.134037270522077e-01 -4.240310925087647e-01
            8.239751906447902e-02 -4.124856565063862e-02 5.799531085302664e-02 -1.710933917730352e-02 -5.134126975775389e-01 -4.240867984147484e-01 -3.455838152297537e-02 -1.076009691350976e-03
            -3.454878023031741e-02 -1.113154872052837e-03 -5.133562330853370e-01 -4.241146196149944e-01 5.359152771981335e-02 -3.725708439670457e-02 7.544123532462446e-02 -4.091533462030836e-02
            -5.134678639449707e-01 -4.240954493719574e-01 -3.452677407679627e-02 -1.152514982540090e-03 7.546005077680823e-02 -4.093286973563474e-02 5.356610735555299e-02 -3.725072346508965e-02
344713094.2452043295 4.792964191817778e-02 -1.271709811985661e-02 6.990474365049812e-02 -3.621920847393904e-02 -3.643035323503167e-02 5.638079275327070e-03 -5.744290929731095e-01 -3.387557550628840e-01
            6.984140832980619e-02 -3.625333392902185e-02 4.799929494811341e-02 -1.274499509519115e-02 -5.743252063639073e-01 -3.387395834945567e-01 -3.641195643336922e-02 5.674003687029562e-03
            -3.642136424275175e-02 5.660345555066028e-03 -5.743116237737335e-01 -3.387404172454109e-01 4.500782285222835e-02 -2.939667808860574e-02 6.235342518045509e-02 -3.566000013159765e-02
            -5.743882229746220e-01 -3.387479031966893e-01 -3.642522936618482e-02 5.705804541584944e-03 6.244098744207530e-02 -3.570769084663454e-02 4.502947967862900e-02 -2.940830956517990e-02
345212677.2310258746 3.983277484694182e-02 -5.098621517569254e-03 5.951121972308137e-02 -2.764266141834860e-02 -3.686214818648093e-02 1.344505477652677e-02 -6.210812468954640e-01 -2.443547136184138e-01
            5.963325164424969e-02 -2.763179220847320e-02 3.978777696058915e-02 -5.144721695335776e-03 -6.211029755186637e-01 -2.443808379386284e-01 -3.697258156880425e-02 1.344433200510215e-02
            -3.699688686591684e-02 1.339073536727476e-02 -6.211420312460257e-01 -2.443039243725519e-01 3.904968057774204e-02 -1.904360754589102e-02 5.160401171903320e-02 -2.668533419946945e-02
            -6.211321038477009e-01 -2.443085791847632e-01 -3.690981574429342e-02 1.352155218679084e-02 5.168639172189212e-02 -2.667087102226577e-02 3.903688019050940e-02 -1.908334307856022e-02
345712260.2168473601 3.452275122002734e-02 4.981073420935373e-03 5.259419265371169e-02 -1.625875809316572e-02 -3.546892406312990e-02 2.166376194663697e-02 -6.521956148519914e-01 -1.433819095403150e-01
            5.267203606552928e-02 -1.637409635574530e-02 3.452570749449301e-02 5.101237069297490e-03 -6.521514280003429e-01 -1.432671689897917e-01 -3.550357012642290e-02 2.174129167260498e-02
            -3.546273382342788e-02 2.177279863664099e-02 -6.521620516917006e-01 -1.433676612221512e-01 3.651237684446194e-02 -7.112052299643100e-03 4.438926900384316e-02 -1.478309032458228e-02
            -6.520766218972833e-01 -1.432875280253939e-01 -3.541336341692766e-02 2.175950187688511e-02 4.434079232732947e-02 -1.482850667194513e-02 3.653731703403135e-02 -7.114555981558891e-03
346211843.2026689053 3.280561576068358e-02 1.657324890152359e-02 4.977640916657784e-02 -3.475653290568008e-03 -3.185560484687242e-02 2.989153281010820e-02 -6.663522903287613e-01 -3.854186750308877e-02
            4.979933292273703e-02 -3.463045465317155e-03 3.290265396986743e-02 1.655533987188595e-02 -6.663969585024828e-01 -3.851167139118927e-02 -3.184160417459596e-02 2.996268596865127e-02
            -3.187077839914116e-02 2.996815670272819e-02 -6.663211383548274e-01 -3.857135105533958e-02 3.776547240920756e-02 5.336616627902499e-03 4.129627561262503e-02 -1.359527978147858e-03
            -6.662741122285291e-01 -3.855960645496030e-02 -3.182134756082054e-02 2.992634187388897e-02 4.123461234328089e-02 -1.430285476329099e-03 3.784814647717089e-02 5.162925320385963e-03
346711426.1884903908 3.492546975395781e-02 2.829931895131661e-02 5.114123837480480e-02 9.361805369511830e-03 -2.611491383673157e-02 3.742683031344169e-02 -6.633637384343295e-01 6.712217034234959e-02
            5.120191210226727e-02 9.439392202356185e-03 3.501026266233924e-02 2.832280458221695e-02 -6.633599849515305e-01 6.705121787714187e-02 -2.609048734699660e-02 3.738889288786520e-02
            -2.610474125518928e-02 3.745748287009330e-02 -6.633451352929612e-01 6.710271502646473e-02 4.278763775281027e-02 1.658213025636160e-02 4.272693898473681e-02 1.223936729327773e-02
            -6.634144858038944e-01 6.707098931886452e-02 -2.611224476540239e-02 3.732208558498139e-02 4.272727255574386e-02 1.228028361192121e-02 4.283278438956129e-02 1.653567523960798e-02
347211009.1743119359 4.080085654778889e-02 3.890862313474473e-02 5.670111256721591e-02 2.098227266189918e-02 -1.841254157760815e-02 4.340135063410078e-02 -6.434101551129843e-01 1.704151042837942e-01
            5.667116772763116e-02 2.098775620392238e-02 4.090007442594755e-02 3.884140500582458e-02 -6.434516268028266e-01 1.703999513252766e-01 -1.843052528914750e-02 4.344152398855993e-02
            -1.844192090527100e-02 4.347579635539450e-02 -6.434875270086435e-01 1.704238282738148e-01 5.117356366089275e-02 2.597315909630237e-02 4.820276165064112e-02 2.460274016732049e-02
            -6.433943736882107e-01 1.704531617392941e-01 -1.841509291011647e-02 4.337983062809698e-02 4.830805660908847e-02 2.454065989079290e-02 5.114292856750041e-02 2.608300655143422e-02
347710592.1601334214 4.983394156449924e-02 4.726625730291679e-02 6.547322748732946e-02 3.010693164951733e-02 -9.486059369139261e-03 4.740827773383350e-02 -6.072442987126900e-01 2.687691463912166e-01
            6.553027408320029e-02 3.005928041727012e-02 4.979424995652090e-02 4.723976482318828e-02 -6.073327190098509e-01 2.687806875613427e-01 -9.507792647825315e-03 4.746143424922243e-02
            -9.399255454815025e-03 4.746964840129565e-02 -6.073321828743380e-01 2.687687264871364e-01 6.205003711302036e-02 3.235317680681177e-02 5.733855300489450e-02 3.433216297496339e-02
            -6.072752246024420e-01 2.687333327486680e-01 -9.338084850789699e-03 4.740611400103592e-02 5.735364915386881e-02 3.432625666987060e-02 6.202588932019494e-02 3.239384289158206e-02
348210175.1459549665 6.084302711290515e-02 5.251269055346044e-02 7.680850853032602e-02 3.575521155884438e-02 2.187084800309190e-04 4.928126828770872e-02 -5.563957393862101e-01 3.596119387173176e-01
            7.675690131681054e-02 3.564441487147925e-02 6.090041619524123e-02 5.247590671246908e-02 -5.564133948169121e-01 3.596046206421926e-01 3.000391285668280e-04 4.919404298414486e-02
            2.192143917603190e-04 4.925231950823711e-02 -5.562972380974772e-01 3.595808732376052e-01 7.423149663743285e-02 3.500758410454905e-02 6.892530170766641e-02 4.083123978338730e-02
            -5.563601684838223e-01 3.595884080265259e-01 2.644043334340084e-04 4.924760376024485e-02 6.893622151183230e-02 4.071859183918944e-02 7.417315233364472e-02 3.507059804514660e-02
348709758.1317765117 7.307688087291822e-02 5.408872711596980e-02 8.918902217709325e-02 3.746893771526945e-02 9.898192116077210e-03 4.875583922581837e-02 -4.923257742765846e-01 4.406595471107915e-01
            8.921394602303388e-02 3.741422156041237e-02 7.308640564505646e-02 5.405670297824106e-02 -4.922920104516446e-01 4.406296253886255e-01 9.967915131273901e-03 4.873913956915557e-02
            9.970997970467204e-03 4.873906444194685e-02 -4.922918397336831e-01 4.407321385395784e-01 8.662569684410056e-02 3.387735241472039e-02 8.174303295920256e-02 4.312189646350115e-02
            -4.922960768025973e-01 4.406866805015709e-01 9.942157116678932e-03 4.878164922642066e-02 8.175861139570773e-02 4.312227021803727e-02 8.660980070515480e-02 3.389784641270983e-02
349209341.1175979972 8.516736218760301e-02 5.191455013792844e-02 1.012591120262717e-01 3.518966646980339e-02 1.915232878883127e-02 4.629582430510585e-02 -4.169419553203574e-01 5.103625449390675e-01
            1.013877529987146e-01 3.510632567786910e-02 8.502087257468567e-02 5.193178672660573e-02 -4.168714497232096e-01 5.104099880425811e-01 1.917788924213111e-02 4.624234253253516e-02
            1.913182482139869e-02 4.625771877344816e-02 -4.169118001248652e-01 5.104838484242732e-01 9.794384813025291e-02 2.902214285390794e-02 9.459504537369498e-02 4.132765537063797e-02
            -4.168488924081223e-01 5.104231267757939e-01 1.916460474090288e-02 4.626603024243889e-02 9.462761891603634e-02 4.142259800848798e-02 9.794010934778156e-02 2.910651690251626e-02
349708924.1034195423 9.588234518233699e-02 4.642025575487833e-02 1.121180402663045e-01 2.915366185964598e-02 2.726059553645795e-02 4.207185097687995e-02 -3.322357703307938e-01 5.674154494270921e-01
            1.121205466045232e-01 2.918965432258595e-02 9.586079938815648e-02 4.642813694984603e-02 -3.322487486134970e-01 5.673423631861162e-01 2.724870721832993e-02 4.214270809746683e-02
            2.718993624414498e-02 4.204295648142565e-02 -3.322583815609572e-01 5.674099651782879e-01 1.072083918217854e-01 2.104767419107378e-02 1.060399522891555e-01 3.587783076618644e-02
            -3.322485022003339e-01 5.674207213757460e-01 2.720640935742171e-02 4.210602627071958e-02 1.060861891349520e-01 3.595090806980304e-02 1.071541700186757e-01 2.106208340588897e-02
350208507.0892410278 1.044252675773919e-01 3.794733888631245e-02 1.205159223046961e-01 2.010103581539069e-02 3.419601473058658e-02 3.672642903765899e-02 -2.404522198483645e-01 6.108026421348193e-01
            1.206398072501441e-01 2.010842487693578e-02 1.044064787918688e-01 3.796115564584653e-02 -2.404440837771322e-01 6.106934801612761e-01 3.414874575094867e-02 3.675971577216574e-02
            3.406303728734351e-02 3.669175423414965e-02 -2.404817695007381e-01 6.107892456679971e-01 1.134860101405542e-01 1.067310393231671e-02 1.152899568865491e-01 2.716560674139966e-02
            -2.404485945147130e-01 6.107306772602668e-01 3.409728105984641e-02 3.674340503788100e-02 1.152408204330851e-01 2.718859856367403e-02 1.134289122475960e-01 1.066406533785472e-02
350708090.0750625730 1.100405622510936e-01 2.747970595841466e-02 1.257628096536169e-01 8.877101541958169e-03 3.976105023015801e-02 3.061885741955871e-02 -1.435242555975198e-01 6.397201025449629e-01
            1.256914365115974e-01 8.827664431389057e-03 1.100563133557282e-01 2.747601286970407e-02 -1.434341053990492e-01 6.397169193828588e-01 3.967967175738316e-02 3.055651759753927e-02
            3.970918618278928e-02 3.056795742629661e-02 -1.435523277708972e-01 6.397398221858107e-01 1.163795327340787e-01 -1.120792143020197e-03 1.212024846728081e-01 1.629184278797183e-02
            -1.434742275329094e-01 6.397558066090357e-01 3.979820017071057e-02 3.062814520143574e-02 1.212252674401596e-01 1.632225552321810e-02 1.163883259436535e-01 -1.021184339910443e-03
351207673.0608840585 1.122095858995110e-01 1.592984524121719e-02 1.272945538480670e-01 -3.488286574625865e-03 4.415489746668736e-02 2.407014545533626e-02 -4.346108826809433e-02 6.538948423090843e-01
            1.273540806777441e-01 -3.466970778703735e-03 1.122488366578159e-01 1.590009159382889e-02 -4.347992701767801e-02 6.539301325244873e-01 4.422563084995763e-02 2.410350614048905e-02
            4.415850019618085e-02 2.403064893474006e-02 -4.347502261517048e-02 6.538858589921756e-01 1.155355225932843e-01 -1.307951146282007e-02 1.236758738727107e-01 4.036393873878464e-03
            -4.344307586236056e-02 6.539587294360102e-01 4.414080234399543e-02 2.402899887715014e-02 1.236549934861433e-01 3.952900361254153e-03 1.155545859840043e-01 -1.314211186910695e-02
351707256.0467056036 1.108645251047091e-01 4.345336748322316e-03 1.249537304759233e-01 -1.573273439814078e-02 4.751784491701661e-02 1.730231548633824e-02 5.751503266116674e-02 6.529041510043806e-01
            1.249657341067058e-01 -1.581703285300124e-02 1.109169692459022e-01 4.498931104243219e-03 5.757969427170293e-02 6.528874739399557e-01 4.751124497980149e-02 1.732275320391586e-02
            4.752346707359825e-02 1.736552047069423e-02 5.749948778358965e-02 6.528486555997151e-01 1.111113237144918e-01 -2.437554507212982e-02 1.222350142584348e-01 -8.309773096833983e-03
            5.753555206853767e-02 6.528841205162095e-01 4.752019769140250e-02 1.736389765752472e-02 1.221872729029220e-01 -8.309298732211919e-03 1.111217620371528e-01 -2.443626418853879e-02
352206839.0325270891 1.060751663408753e-01 -6.182564977742049e-03 1.190175769220967e-01 -2.678934330828595e-02 5.028042650499783e-02 1.044952522642471e-02 1.575731822385891e-01 6.366247307918148e-01
            1.190280197025600e-01 -2.684866125782338e-02 1.061196434974061e-01 -6.171810823531083e-03 1.575657942597037e-01 6.366938943840860e-01 5.024156434553183e-02 1.047149615635599e-02
            5.029510610263734e-02 1.038674595061582e-02 1.575699924432090e-01 6.367023275387137e-01 1.034058911985065e-01 -3.370677047357696e-02 1.169665143791103e-01 -1.969695408228872e-02
            1.575583800421249e-01 6.366706966587584e-01 5.025629858871130e-02 1.041261196126502e-02 1.170400494769802e-01 -1.960898150039757e-02 1.034341107345233e-01 -3.374991854069661e-02
352706422.0183486342 9.831234389722894e-02 -1.461874494443795e-02 1.099014383577038e-01 -3.568032491967824e-02 5.236058975530480e-02 3.300777509182318e-03 2.544035460276122e-01 6.054451546704853e-01
            1.099077775934341e-01 -3.566823267139291e-02 9.833705016381995e-02 -1.462552249633613e-02 2.543767397345738e-01 6.054099872239660e-01 5.236098511717747e-02 3.201199122280981e-03
            5.241798758335368e-02 3.183615184555983e-03 2.544148097434418e-01 6.053615831236203e-01 9.306950567398312e-02 -4.038305391264210e-02 1.086051342148186e-01 -2.883490926091390e-02
            2.543782640197287e-01 6.053910669376793e-01 5.235919976500614e-02 3.212271394215453e-03 1.085689988393319e-01 -2.885843722262330e-02 9.304753873951387e-02 -4.039838307868063e-02
353206005.0041701198 8.828035121515264e-02 -2.018004243828660e-02 9.838093829558159e-02 -4.139735199225146e-02 5.386764414395569e-02 -4.370110301687381e-03 3.457113239859227e-01 5.595330945882451e-01
            9.842177123763118e-02 -4.138720730317777e-02 8.822036544357929e-02 -2.018718421948615e-02 3.458164766516496e-01 5.594669325647647e-01 5.385382245010089e-02 -4.375158746381058e-03
            5.393341085919249e-02 -4.358333710270277e-03 3.457497690596833e-01 5.595016146546756e-01 8.114086161207788e-02 -4.370477279990977e-02 9.778597576979203e-02 -3.497691129864648e-02
            3.457336763196512e-01 5.594999053215685e-01 5.387261735770361e-02 -4.377143802544672e-03 9.776821523986692e-02 -3.491366260154283e-02 8.107045757109566e-02 -4.370355172014334e-02
353705587.9899916649 7.695484990398020e-02 -2.235625449199464e-02 8.555996347914520e-02 -4.336796788012340e-02 5.464471689338724e-02 -1.263777783842620e-02 4.293585293344568e-01 4.996522952230846e-01
            8.560163321297835e-02 -4.323241487662600e-02 7.692358923931131e-02 -2.224518982478850e-02 4.293421747563093e-01 4.996617994557247e-01 5.459583759244942e-02 -1.260829528782759e-02
            5.467537171477292e-02 -1.261711240299093e-02 4.293292910655446e-01 4.995970837861396e-01 6.853248862616433e-02 -4.302451711012218e-02 8.545507244203202e-02 -3.734619732297103e-02
            4.293248832134207e-01 4.995824889491359e-01 5.464142979643666e-02 -1.267274197343245e-02 8.541156827503345e-02 -3.737705047230359e-02 6.854350649172586e-02 -4.302852589686357e-02
354205170.9758132100 6.546593093302078e-02 -2.062775364344277e-02 7.267100680985350e-02 -4.117008328756969e-02 5.433545118208572e-02 -2.154516059251740e-02 5.030165444884522e-01 4.269777450433416e-01
            7.269867270442601e-02 -4.121659908878848e-02 6.554720866809767e-02 -2.063438982463512e-02 5.030642251357736e-01 4.268820231786797e-01 5.426735631478682e-02 -2.158913432497208e-02
            5.432017547153123e-02 -2.165643933551037e-02 5.030871795452569e-01 4.268963282682696e-01 5.663813637079286e-02 -3.845495589794672e-02 7.291139074820659e-02 -3.577373793941479e-02
            5.030304581997053e-01 4.269364039286608e-01 5.424443654620761e-02 -2.156929745162960e-02 7.296351180336018e-02 -3.577450037621947e-02 5.658033331471162e-02 -3.856909386009914e-02
354704753.9616346955 5.520522189440793e-02 -1.517580985664064e-02 6.106859724339529e-02 -3.507812345239575e-02 5.244136584929133e-02 -3.124112074013539e-02 5.645220112238021e-01 3.430571552785791e-01
            6.107219626240294e-02 -3.506779351941800e-02 5.517211321712530e-02 -1.529974221329791e-02 5.645156483751063e-01 3.430874855139759e-01 5.248069810494799e-02 -3.131838814902403e-02
            5.243245139704396e-02 -3.124697580868591e-02 5.645487109876701e-01 3.429868420544735e-01 4.659543557099413e-02 -3.034270328291064e-02 6.160017974194649e-02 -3.018864847732788e-02
            5.645014150853207e-01 3.430373870422226e-01 5.253033481412207e-02 -3.129191318062975e-02 6.159659993532850e-02 -3.024927535818215e-02 4.655280133173796e-02 -3.034929692240899e-02
355204336.9474562407 4.720460715770546e-02 -6.741425183115813e-03 5.183285109900661e-02 -2.560271283951185e-02 4.875966382117115e-02 -4.132646935566277e-02 6.119991106599333e-01 2.500023563361874e-01
            5.186024004500174e-02 -2.562684882665329e-02 4.722989187134329e-02 -6.790163743526482e-03 6.119428052009819e-01 2.499283249585376e-01 4.874979980270978e-02 -4.128935903940508e-02
            4.871923366804935e-02 -4.125578771809826e-02 6.119624488156502e-01 2.499765578714708e-01 3.944793111872801e-02 -1.933953161386762e-02 5.244329941427904e-02 -2.135046887827840e-02
            6.119041849194332e-01 2.499407495325885e-01 4.876169553793289e-02 -4.136617518586836e-02 5.252768185834859e-02 -2.123207915204513e-02 3.936469811296255e-02 -1.940450901167540e-02
355703919.9332777262 4.234081779124561e-02 4.045894856050019e-03 4.617137086956333e-02 -1.366301597928988e-02 4.277567878177723e-02 -5.116194077447143e-02 6.437141672845097e-01 1.502058668329975e-01
            4.610579679875174e-02 -1.372486671107103e-02 4.228258623394219e-02 4.015155591296818e-03 6.437608871349958e-01 1.501851236222577e-01 4.274602363717683e-02 -5.121874480853702e-02
            4.279321921471251e-02 -5.118118828431405e-02 6.437487292330034e-01 1.502501946544858e-01 3.603345100635547e-02 -6.571640277058303e-03 4.685087480664343e-02 -9.891448521389418e-03
            6.438486856184078e-01 1.501800688139077e-01 4.273535076271324e-02 -5.117598224315532e-02 4.687562580159193e-02 -9.891517159497687e-03 3.603594605489979e-02 -6.632915839323299e-03
356203502.9190992713 4.129919944217791e-02 1.590340735349322e-02 4.447524374167792e-02 -5.506550490838986e-04 3.437625935595148e-02 -6.017701600113419e-02 6.589866239573081e-01 4.659618045871096e-02
            4.448853963888528e-02 -5.295318736321464e-04 4.136141771686352e-02 1.585417954903424e-02 6.589576708525762e-01 4.652948585983278e-02 3.442671229670443e-02 -6.018163645453994e-02
            3.439215928636226e-02 -6.018174786242816e-02 6.589807098843172e-01 4.663682981018596e-02 3.682378196139032e-02 6.723716503919224e-03 4.514004802587599e-02 2.691555157394677e-03
            6.589645969748739e-01 4.662879545258189e-02 3.441147021468851e-02 -6.021828493064933e-02 4.513956097451446e-02 2.668245887833945e-03 3.691648514812313e-02 6.717339016484057e-03
356703085.9049207568 4.425364734991984e-02 2.761014394118040e-02 4.703356858820645e-02 1.233576626061422e-02 2.379831753221381e-02 -6.758115551526450e-02 6.571157602841362e-01 -5.798037420167673e-02
            4.707335119352150e-02 1.237397394226686e-02 4.420796364293102e-02 2.755429744378685e-02 6.570717579087504e-01 -5.789274956851169e-02 2.384673384405014e-02 -6.757181342856035e-02
            2.382001570136992e-02 -6.757992783407164e-02 6.571408500551359e-01 -5.790305789613961e-02 4.190409730965992e-02 1.911816535904375e-02 4.758104653575614e-02 1.515344436166845e-02
            6.571709886498543e-01 -5.789516378236308e-02 2.377566960340271e-02 -6.763313024269052e-02 4.766498903598188e-02 1.520076877368251e-02 4.175528483488934e-02 1.920027229832129e-02
357202668.8907423019 5.086564230343517e-02 3.763633486810650e-02 5.352003887190722e-02 2.368095653910755e-02 1.140754614136487e-02 -7.279629016342649e-02 6.385403956855124e-01 -1.602850499341661e-01
            5.363035533750612e-02 2.364950699148708e-02 5.087499510423685e-02 3.765230573004773e-02 6.385099920097225e-01 -1.603945429721594e-01 1.138458980142037e-02 -7.284752422124929e-02
            1.137786862514820e-02 -7.282057747138566e-02 6.385151757986068e-01 -1.603244715916709e-01 5.043301878292634e-02 2.942679043369975e-02 5.392464292992374e-02 2.612193228033030e-02
            6.385212344277151e-01 -1.603211047165785e-01 1.142193450206791e-02 -7.280087359673824e-02 5.387976720093601e-02 2.620190882297950e-02 5.040307481956438e-02 2.945352652944921e-02
357702251.8765637875 6.035832511359776e-02 4.523671904506166e-02 6.338945271173263e-02 3.225124231117267e-02 -2.169327067238778e-03 -7.523056582079697e-02 6.039380977884380e-01 -2.578663339066917e-01
            6.337482741887566e-02 3.227911310562943e-02 6.036403305516342e-02 4.519092073137799e-02 6.039938355719568e-01 -2.579087101796537e-01 -2.104547348117985e-03 -7.531885231271457e-02
            -2.127731428269184e-03 -7.525863879365809e-02 6.039084244356661e-01 -2.578999378956949e-01 6.177675607775938e-02 3.644365832653396e-02 6.321920427042163e-02 3.448238089668951e-02
            6.039405207430869e-01 -2.578798336064755e-01 -2.137642010437521e-03 -7.531233088086245e-02 6.333320259799906e-02 3.452700040329049e-02 6.172564309275907e-02 3.642509525187992e-02
358201834.8623853326 7.180749418964749e-02 4.932958270762058e-02 7.523581733963106e-02 3.730276183188782e-02 -1.600810481558091e-02 -7.479627238615180e-02 5.547176512094673e-01 -3.481574035473871e-01
            7.521962050688577e-02 3.728021924050980e-02 7.183717489138707e-02 4.933596451107947e-02 5.547039443389884e-01 -3.481129838173619e-01 -1.600744533619502e-02 -7.477934066940159e-02
            -1.596693970992591e-02 -7.472907480606837e-02 5.546467415660929e-01 -3.481481168242265e-01 7.456046262028336e-02 3.961469981032870e-02 7.471544159723580e-02 3.941183228211917e-02
            5.547151119765978e-01 -3.480965924507755e-01 -1.606992330729623e-02 -7.477132319568033e-02 7.471855637008819e-02 3.946959052510835e-02 7.456430026463121e-02 3.967578799262548e-02
358701417.8482068181 8.398649163819678e-02 4.970887355368207e-02 8.794186411356378e-02 3.835137407346723e-02 -2.947532365212001e-02 -7.143068728355857e-02 4.923528585883201e-01 -4.289562600397250e-01
            8.792045643319202e-02 3.829134279624632e-02 8.396940405748311e-02 4.967158135150873e-02 4.923737566978276e-01 -4.289589102669991e-01 -2.939804365413915e-02 -7.146243071188559e-02
            -2.941461530547581e-02 -7.151238582612186e-02 4.923352780228755e-01 -4.290413391600000e-01 8.755541408030121e-02 3.873629683480178e-02 8.711254809022434e-02 4.049114317860652e-02
            4.923293148996686e-01 -4.289377654458394e-01 -2.948450016364626e-02 -7.143560545409544e-02 8.715542628635209e-02 4.052883431857843e-02 8.766023477587162e-02 3.873772652007136e-02
359201000.8340283632 9.564662728602512e-02 4.635393909437495e-02 1.002753593221953e-01 3.536534161540063e-02 -4.166551252656264e-02 -6.556621014743319e-02 4.189084518055061e-01 -4.987416216585442e-01
            1.001487301106163e-01 3.541286762894370e-02 9.564368531105613e-02 4.635048438483150e-02 4.189459642707229e-01 -4.987286559277850e-01 -4.173708472008326e-02 -6.548855168396885e-02
            -4.168286454543098e-02 -6.557191526798642e-02 4.189146253670404e-01 -4.986813776689655e-01 9.965827440447586e-02 3.394041028513393e-02 9.913216231786046e-02 3.782516035739763e-02
            4.188995813767271e-01 -4.987896263473039e-01 -4.177134696278880e-02 -6.548678182463583e-02 9.915969167104630e-02 3.780607800889511e-02 9.968486540272477e-02 3.393986397885908e-02
359700583.8198499084 1.057085319359567e-01 3.966631354346636e-02 1.109302254932271e-01 2.887923983646807e-02 -5.246328219833299e-02 -5.767577992264158e-02 3.360878211115851e-01 -5.560886211552177e-01
            1.109079927803418e-01 2.880855338961638e-02 1.058243128704948e-01 3.960477937833204e-02 3.361565255262378e-01 -5.561478024727805e-01 -5.241061473906262e-02 -5.763991070289097e-02
            -5.242930860405895e-02 -5.765991528501524e-02 3.361717846908862e-01 -5.561258581866891e-01 1.096747736116015e-01 2.583474045558756e-02 1.096605354508577e-01 3.155548709376139e-02
            3.361425492969300e-01 -5.561132495934845e-01 -5.239017580829414e-02 -5.761496416410380e-02 1.096929066568443e-01 3.154920509338967e-02 1.096435285368866e-01 2.579898727344198e-02
360200166.8056713939 1.132227238268975e-01 3.018903657960790e-02 1.190830050622373e-01 1.936459883688099e-02 -6.115664454755609e-02 -4.819464353503407e-02 2.461280192199345e-01 -6.002249950826561e-01
            1.191353125159791e-01 1.931678178019445e-02 1.133569653863924e-01 3.015147645012742e-02 2.461859487822674e-01 -6.001600933834101e-01 -6.120633053934215e-02 -4.820879609970267e-02
            -6.125905446668316e-02 -4.821857716247896e-02 2.460674018630797e-01 -6.001900509500899e-01 1.165602987945770e-01 1.514962822865804e-02 1.177954447022727e-01 2.249720211391432e-02
            2.461598981683016e-01 -6.002491051536765e-01 -6.122172554817762e-02 -4.814769215238654e-02 1.177474887586385e-01 2.248000721675721e-02 1.165436184104156e-01 1.524073546022675e-02
360699749.7914929390 1.176952438001538e-01 1.892105335482531e-02 1.239997247739679e-01 7.788505983551067e-03 -6.802940982973905e-02 -3.777259818999047e-02 1.508701682668414e-01 -6.301886532368746e-01
            1.239659234831826e-01 7.888915071776499e-03 1.177121069285083e-01 1.897136461622892e-02 1.508934066953695e-01 -6.301385755637838e-01 -6.811776097939493e-02 -3.776743381052812e-02
            -6.813288803078385e-02 -3.776249941496188e-02 1.508406021243778e-01 -6.301526345499248e-01 1.199454418339996e-01 3.056627452312849e-03 1.227502527082375e-01 1.137730161589865e-02
            1.509065464625226e-01 -6.302066192199801e-01 -6.817561825529903e-02 -3.774183070229813e-02 1.227487215598911e-01 1.133136997063161e-02 1.199167896588458e-01 3.016337303465047e-03
361199332.7773144245 1.186361567506602e-01 6.979359953936238e-03 1.251425307081256e-01 -4.760252309910892e-03 -7.318475488066765e-02 -2.682913339296496e-02 5.227484397583879e-02 -6.456620649508098e-01
            1.251298480461100e-01 -4.690869123128336e-03 1.186100855281765e-01 6.894792842951834e-03 5.219413666840528e-02 -6.455866936728524e-01 -7.323747415762306e-02 -2.684620334385826e-02
            -7.316899846973947e-02 -2.681913766427462e-02 5.225854307733079e-02 -6.456046569754739e-01 1.195330140191588e-01 -9.573484292842402e-03 1.240593859248966e-01 -7.109558729396302e-04
            5.233094952794962e-02 -6.455990437048659e-01 -7.329586881166952e-02 -2.678701719029135e-02 1.239986446521778e-01 -7.319196379849421e-04 1.195345985209406e-01 -9.532334562575032e-03
361698915.7631359696 1.157742409202275e-01 -4.859154240489732e-03 1.224082775729989e-01 -1.698866802969525e-02 -7.678020602054578e-02 -1.563724065090513e-02 -4.759690036770738e-02 -6.461058055947397e-01
            1.224298999489574e-01 -1.693315055282034e-02 1.157560406347028e-01 -4.863122772029005e-03 -4.763597412171191e-02 -6.460851664214706e-01 -7.673424402287415e-02 -1.562684725219329e-02
            -7.666359079795339e-02 -1.566081811681370e-02 -4.757016447395426e-02 -6.460827980304402e-01 1.153481569457250e-01 -2.132570572570681e-02 1.218034280995494e-01 -1.257904357019463e-02
            -4.757780276333134e-02 -6.461319842849799e-01 -7.663813318496371e-02 -1.569295910441256e-02 1.217163332564992e-01 -1.252628691544215e-02 1.153900622493786e-01 -2.137073005659840e-02
362198498.7489574552 1.095532046447073e-01 -1.519299357950437e-02 1.160823611690334e-01 -2.788469415453277e-02 -7.880920636292597e-02 -4.452338482946166e-03 -1.466975438793758e-01 -6.315304684148090e-01
            1.161069812660653e-01 -2.783576998800328e-02 1.095606886631556e-01 -1.516227437355430e-02 -1.467111525644260e-01 -6.314983048698904e-01 -7.883284122956473e-02 -4.278028699288519e-03
            -7.879114081661988e-02 -4.363836312246379e-03 -1.467118175549350e-01 -6.315701327220992e-01 1.077953752460370e-01 -3.122429758266453e-02 1.160421341608417e-01 -2.318712357297711e-02
            -1.466903471342651e-01 -6.315622628588652e-01 -7.879934364929546e-02 -4.336802204938380e-03 1.160338666023653e-01 -2.325048454371527e-02 1.078206889744953e-01 -3.133652004453671e-02
362698081.7347790003 1.004934139878271e-01 -2.324063325808125e-02 1.067706558347704e-01 -3.647689303292456e-02 -7.967151498133025e-02 7.077867921263530e-03 -2.429238079929795e-01 -6.020711010782053e-01
            1.066442538948923e-01 -3.643266980184998e-02 1.005093120698464e-01 -2.328334690347850e-02 -2.428997564226336e-01 -6.021096866307252e-01 -7.965782705140255e-02 7.135547518062081e-03
            -7.958547219939262e-02 7.019115634956411e-03 -2.428520571908193e-01 -6.020906800384120e-01 9.752827374031382e-02 -3.845248896435272e-02 1.072625912351832e-01 -3.163874682861446e-02
            -2.428791480550125e-01 -6.020866104256777e-01 -7.959779236386064e-02 7.084603351771628e-03 1.072701507918742e-01 -3.160506095083471e-02 9.754711939166427e-02 -3.851884812400034e-02
363197664.7206004858 8.926010646442240e-02 -2.811422162996517e-02 9.507372644923802e-02 -4.188683545128436e-02 -7.927665753319846e-02 1.880399915393882e-02 -3.339523888965349e-01 -5.579698015579015e-01
            9.499328018484823e-02 -4.194302201903939e-02 8.935566321677650e-02 -2.815248416260532e-02 -3.339693781290897e-01 -5.579018156097578e-01 -7.917940710465832e-02 1.878632237113776e-02
            -7.935492981178163e-02 1.871513453822522e-02 -3.339305350779014e-01 -5.579160851424974e-01 8.545924594896169e-02 -4.222898445080422e-02 9.632646473050135e-02 -3.693486330743610e-02
            -3.338510410145407e-01 -5.579363923787687e-01 -7.930573502852481e-02 1.876704220245273e-02 9.627634791936314e-02 -3.690265649650484e-02 8.553762217442458e-02 -4.219851555921991e-02
363697247.7064220309 7.716767281163162e-02 -2.932646590823637e-02 8.220353761382514e-02 -4.337938336010497e-02 -7.760983210434483e-02 3.078061448916729e-02 -4.174661147324306e-01 -4.997758162731213e-01
            8.215347663826399e-02 -4.346655245641515e-02 7.713503812531167e-02 -2.929591548690563e-02 -4.174156063945835e-01 -4.999182544179009e-01 -7.758307179566078e-02 3.078680837014968e-02
            -7.749166362140557e-02 3.076980957641352e-02 -4.174666509444210e-01 -4.998574336014539e-01 7.280482846437600e-02 -4.201959275500581e-02 8.435538277953060e-02 -3.860713004244568e-02
            -4.175267148696698e-01 -4.998343729554447e-01 -7.754269272749174e-02 3.078726469572435e-02 8.425960025097803e-02 -3.857793844586267e-02 7.290361343415915e-02 -4.196127546258636e-02
364196830.6922435164 6.507980628141274e-02 -2.664639106395745e-02 6.934181035692269e-02 -4.084109811850536e-02 -7.412512387294808e-02 4.307496915799231e-02 -4.913393267752512e-01 -4.289412075371207e-01
            6.939932895132683e-02 -4.091501565945840e-02 6.512365409549013e-02 -2.670325441251882e-02 -4.912824884660450e-01 -4.288932412671425e-01 -7.418265864479298e-02 4.316995495518379e-02
            -7.418765222363360e-02 4.304989055594671e-02 -4.913256323305773e-01 -4.289560868306834e-01 6.081847534310313e-02 -3.793574870163523e-02 7.228714253069835e-02 -3.640833888730349e-02
            -4.913288237628081e-01 -4.290076502336111e-01 -7.421316982653332e-02 4.306837593064862e-02 7.223280694659048e-02 -3.640045921956016e-02 6.082987480045515e-02 -3.784601809864712e-02
364696413.6780650616 5.447529004829267e-02 -2.031790102985851e-02 5.789380556344507e-02 -3.447119444882520e-02 -6.882705653026333e-02 5.556176920549569e-02 -5.532382615673218e-01 -3.468101428097607e-01
            5.792454500006781e-02 -3.457705976435781e-02 5.444785230684606e-02 -2.025952711068867e-02 -5.532698870725754e-01 -3.467386023859271e-01 -6.876860740058983e-02 5.555541839114645e-02
            -6.885618774077754e-02 5.559381647771375e-02 -5.532467487151688e-01 -3.467439294962624e-01 5.065543023162523e-02 -3.001176288932228e-02 6.152685033796777e-02 -3.059904996410952e-02
            -5.532164318556329e-01 -3.468008403091789e-01 -6.885656711528115e-02 5.554626199372348e-02 6.159574314293331e-02 -3.061153104501114e-02 5.067221962002039e-02 -3.006386459483692e-02
365195996.6638866067 4.636798004551378e-02 -1.075218466333854e-02 4.899322976604394e-02 -2.483262212935742e-02 -6.112974515525820e-02 6.785889544369085e-02 -6.012892820499594e-01 -2.552800767183876e-01
            4.901599978746825e-02 -2.478006418213068e-02 4.634434803505988e-02 -1.083224210596936e-02 -6.013024185246191e-01 -2.553478695269756e-01 -6.111946122761512e-02 6.783998596303635e-02
            -6.106393412435494e-02 6.786794795221325e-02 -6.013467607482029e-01 -2.553002322811637e-01 4.345080187033119e-02 -1.945070187719271e-02 5.328988275435505e-02 -2.152632314237129e-02
            -6.013091997047099e-01 -2.552674263882181e-01 -6.113321686355851e-02 6.781481084628861e-02 5.331368505303754e-02 -2.164486248330331e-02 4.347215924178337e-02 -1.944498031927451e-02
365695579.6497080922 4.168673772233691e-02 8.785365429361759e-04 4.356389438962508e-02 -1.284130388386337e-02 -5.076263503550595e-02 7.924013651198648e-02 -6.340902730618275e-01 -1.570747737775470e-01
            4.357398877644741e-02 -1.285501718968202e-02 4.172406465695042e-02 8.674323405013234e-04 -6.340258946345320e-01 -1.571070840078164e-01 -5.089410130670517e-02 7.927834140227015e-02
            -5.085789108105533e-02 7.935393082407445e-02 -6.340086735698066e-01 -1.571451830670282e-01 3.998138425615293e-02 -6.918868874935969e-03 4.830617619641103e-02 -1.047310959660733e-02
            -6.339704758552912e-01 -1.571806850434381e-01 -5.087282878653905e-02 7.931173296492373e-02 4.841264305798110e-02 -1.047915459933720e-02 3.994467279753390e-02 -6.960757102191169e-03
366195162.6355296373 4.098741241520759e-02 1.335851044497876e-02 4.213089859168087e-02 2.222450765918121e-04 -3.802448987742715e-02 8.919086967181800e-02 -6.502561448498156e-01 -5.492162947822671e-02
            4.212173052597989e-02 2.166414862354838e-04 4.100293783522507e-02 1.344038196239325e-02 -6.502920272789494e-01 -5.493721517730045e-02 -3.792829604508622e-02 8.919917075005714e-02
            -3.801097320583861e-02 8.918822176033185e-02 -6.503160568430680e-01 -5.493710744397190e-02 4.059841891465107e-02 5.967293438283463e-03 4.735377370072544e-02 1.519216961471353e-03
            -6.503413294406768e-01 -5.492354580169813e-02 -3.802441193474829e-02 8.912896981188068e-02 4.729870709080800e-02 1.553331791176159e-03 4.066066842653875e-02 5.981442704970232e-03
366694745.6213511229 4.442397043764144e-02 2.544534542136101e-02 4.486775318434987e-02 1.306192100125496e-02 -2.289504199630552e-02 9.672240541494802e-02 -6.497756131027965e-01 4.827920346664075e-02
            4.493933158977895e-02 1.294870000333603e-02 4.440828982374039e-02 2.549401389371580e-02 -6.497429146819015e-01 4.828509440855284e-02 -2.279068363702882e-02 9.671068537243481e-02
            -2.287524244124915e-02 9.671372527560511e-02 -6.498477122310879e-01 4.825026035991537e-02 4.540628082749612e-02 1.800628421295579e-02 5.020139871882297e-02 1.316286687346336e-02
            -6.497770050084007e-01 4.830222348249381e-02 -2.291231706590061e-02 9.667646123512369e-02 5.021120835886696e-02 1.311795602302541e-02 4.545775915272771e-02 1.797739255433104e-02
367194328.6071726680 5.144030263311075e-02 3.588189016173517e-02 5.158200805836333e-02 2.410578178619146e-02 -5.919022500999999e-03 1.013791478058759e-01 -6.328176985256849e-01 1.496618872761139e-01
            5.148468716231829e-02 2.410127711085223e-02 5.146099064939132e-02 3.587213487150752e-02 -6.326651204381920e-01 1.495925999771175e-01 -5.994964518243672e-03 1.013175957860653e-01
            -5.984241915143597e-03 1.013763233067236e-01 -6.327099228274179e-01 1.495982031761774e-01 5.380054742474366e-02 2.790468098896736e-02 5.673653775475178e-02 2.310542163906121e-02
            -6.327693023247707e-01 1.495613748991332e-01 -6.034674373722077e-03 1.014020904618210e-01 5.674867396205579e-02 2.315377180838815e-02 5.382030004210719e-02 2.781303805162283e-02
367693911.5929941535 6.128527532711391e-02 4.340251864511523e-02 6.108393099940064e-02 3.253683918276207e-02 1.190136005956552e-02 1.025583867565821e-01 -5.998430992444556e-01 2.463157282571055e-01
            6.110998339406134e-02 3.251770304734766e-02 6.129626157121867e-02 4.342804844666289e-02 -5.998754405524318e-01 2.463259244140630e-01 1.186410418320882e-02 1.025711207036591e-01
            1.185268421477761e-02 1.026714780591585e-01 -5.999317290932961e-01 2.462936345002265e-01 6.487921804393583e-02 3.450751786387186e-02 6.599832511336651e-02 3.039938459865742e-02
            -5.998778899022316e-01 2.463320121091028e-01 1.176589437885035e-02 1.026418701334689e-01 6.595394289504132e-02 3.041757741574682e-02 6.484540183512183e-02 3.447309542031851e-02
368193494.5788156986 7.301044525339825e-02 4.757294417876005e-02 7.279420015027802e-02 3.729232154409393e-02 2.974377047430383e-02 1.002689399789651e-01 -5.524977041072027e-01 3.360330333285813e-01
            7.278172791688851e-02 3.727938068525156e-02 7.309960996242049e-02 4.753374857945097e-02 -5.524674501743450e-01 3.359895239681567e-01 2.969172430746623e-02 1.002104546922169e-01
            2.971407674476250e-02 1.003135594473975e-01 -5.525036329998415e-01 3.360676964707288e-01 7.726718647710140e-02 3.733081982045865e-02 7.702150600074641e-02 3.422695834091200e-02
            -5.525163626857578e-01 3.359883682328157e-01 2.981286089391659e-02 1.002639113204811e-01 7.691620387257544e-02 3.414819210247810e-02 7.739286586025358e-02 3.742604829350844e-02
368693077.5646371841 8.541772254447233e-02 4.784935180802101e-02 8.510628929612855e-02 3.834980790436698e-02 4.679582543323414e-02 9.445244693271054e-02 -4.921163255011312e-01 4.166732529573737e-01
            8.501398790484903e-02 3.830753685700539e-02 8.532338227956641e-02 4.773319968959987e-02 -4.920636570520945e-01 4.166926736713228e-01 4.681794359593358e-02 9.447183342697528e-02
            4.682796845820635e-02 9.446305246899007e-02 -4.922307272512281e-01 4.166768172647201e-01 8.987326955251297e-02 3.613784900616705e-02 8.844000991683780e-02 3.430265047185515e-02
            -4.921655974404576e-01 4.166701967238279e-01 4.679253835688984e-02 9.457562583445614e-02 8.846457700836617e-02 3.431084285328592e-02 8.995461882263001e-02 3.610401402883260e-02
369192660.5504587293 9.702637132885993e-02 4.425054601691736e-02 9.695532362303022e-02 3.543418208117440e-02 6.242642643334351e-02 8.568461102231920e-02 -4.205504971397579e-01 4.864882724810173e-01
            9.696738271803509e-02 3.545881952077803e-02 9.699885238805324e-02 4.426740928246922e-02 -4.205569867793642e-01 4.865808534183183e-01 6.239431732869316e-02 8.566138332111034e-02
            6.243131116797024e-02 8.561179677814050e-02 -4.205800687065226e-01 4.865195979163771e-01 1.014421457528750e-01 3.111760005753370e-02 9.939551328555897e-02 3.076647967473920e-02
            -4.206101215969336e-01 4.865641291940214e-01 6.232605241895375e-02 8.574166893295267e-02 9.934236558091869e-02 3.078984366686878e-02 1.014279393697221e-01 3.112207125848324e-02
369692243.5362802148 1.070461931896353e-01 3.746283277860443e-02 1.071767624935150e-01 2.909477627915192e-02 7.589812206674809e-02 7.448538975763523e-02 -3.397648093747498e-01 5.444085858386722e-01
            1.071379587861414e-01 2.915683026388384e-02 1.069984788553080e-01 3.742157754242871e-02 -3.397559433877319e-01 5.443802727472165e-01 7.585858948576842e-02 7.444773873782674e-02
            7.584521543648762e-02 7.433600773950289e-02 -3.397748796431200e-01 5.444512727879595e-01 1.107763280369627e-01 2.273315094282669e-02 1.085122293000537e-01 2.396005216507396e-02
            -3.397358093585956e-01 5.444379510343912e-01 7.595694992169014e-02 7.435857537141520e-02 1.085471037947423e-01 2.400854018011662e-02 1.108109952878682e-01 2.278584811644789e-02
370191826.5221017599 1.144376080091552e-01 2.790283372303088e-02 1.148064555781080e-01 2.010787544499669e-02 8.707721307273519e-02 6.120877459069148e-02 -2.515131875436794e-01 5.892857207721504e-01
            1.148369569488868e-01 2.013111903723662e-02 1.144152057209318e-01 2.785940623657660e-02 -2.515024506628499e-01 5.892459047152584e-01 8.701155581348013e-02 6.115158369094585e-02
            8.701380318536990e-02 6.129514566615314e-02 -2.515126125840279e-01 5.892775325217552e-01 1.170716863314065e-01 1.205039856949959e-02 1.151697090848711e-01 1.469456683974079e-02
            -2.515073102646764e-01 5.893374680688573e-01 8.694364036862325e-02 6.118969866656838e-02 1.151104775083132e-01 1.462522850450214e-02 1.171053040531622e-01 1.212849997153379e-02
370691409.5079233050 1.185671837963806e-01 1.680277113255588e-02 1.192774118669895e-01 9.306822973383316e-03 9.562165778071582e-02 4.678350771778896e-02 -1.578306672471381e-01 6.203140113562083e-01
            1.193050319519299e-01 9.251791269112257e-03 1.185765379672183e-01 1.679886718198538e-02 -1.577094657186234e-01 6.202910101164771e-01 9.559824694559314e-02 4.677863154547777e-02
            9.563955025245036e-02 4.691819276116497e-02 -1.577821990485718e-01 6.203559184411465e-01 1.197301986840221e-01 -5.640880665012269e-05 1.185083674154701e-01 3.877597202949528e-03
            -1.577402870928037e-01 6.203452343241109e-01 9.564838678782736e-02 4.677427434313938e-02 1.184705782790235e-01 3.822495997819477e-03 1.198072710905203e-01 -6.906127173174332e-05
371190992.4937447906 1.191328480811813e-01 4.939238428914315e-03 1.201886413208808e-01 -2.307718142518553e-03 1.018729114074843e-01 3.162516108177468e-02 -6.056465060096769e-02 6.370020516511284e-01
            1.201020138620548e-01 -2.317137554290778e-03 1.190497187437491e-01 4.888910248105243e-03 -6.049079589095460e-02 6.369444829298705e-01 1.019366688366136e-01 3.156072395621556e-02
            1.019068054114019e-01 3.158721212882337e-02 -6.052900816226467e-02 6.369637208153290e-01 1.186747693141818e-01 -1.240376215972049e-02 1.182561020488232e-01 -7.662394631350559e-03
            -6.055690281321297e-02 6.369295902331679e-01 1.018747339240972e-01 3.153512651745117e-02 1.182538301552658e-01 -7.726819839567129e-03 1.186740590903197e-01 -1.237083978922621e-02
371690575.4795663357 1.161190703716999e-01 -6.485985934085683e-03 1.174670050516270e-01 -1.359676088747989e-02 1.058943916474900e-01 1.598472877474000e-02 3.826985888344791e-02 6.388833335220813e-01
            1.174236940326174e-01 -1.350856545180587e-02 1.161343702397664e-01 -6.535454657087207e-03 3.826804181590338e-02 6.388782781263752e-01 1.058879438271223e-01 1.596915722133889e-02
            1.058546791238958e-01 1.603122068147670e-02 3.822336957485868e-02 6.388245607747983e-01 1.138905562146006e-01 -2.387079041672097e-02 1.144242942633087e-01 -1.863224606180129e-02
            3.822932706573315e-02 6.388384234879132e-01 1.058397293254499e-01 1.601051771656857e-02 1.144514579333304e-01 -1.868119021245525e-02 1.139964284125177e-01 -2.388712587369612e-02
372190158.4653878212 1.097064902873108e-01 -1.643693996430580e-02 1.113342070717634e-01 -2.334420742109935e-02 1.078064711228625e-01 1.498263138527890e-04 1.366096478454595e-01 6.258027944564479e-01
            1.113527721556257e-01 -2.331975092285012e-02 1.097662593740375e-01 -1.641644303699619e-02 1.365193209913744e-01 6.257790277372570e-01 1.077541450932107e-01 1.371484044282988e-04
            1.077652289591357e-01 1.858870022795904e-04 1.365644370430030e-01 6.258329752156401e-01 1.057713678278878e-01 -3.334895303959066e-02 1.074229964922327e-01 -2.807689261864382e-02
            1.365272557765170e-01 6.258386138438714e-01 1.078402858087195e-01 1.860148676006039e-04 1.074848035491523e-01 -2.797095126431560e-02 1.057775164809868e-01 -3.329929962179509e-02
372689741.4512093663 1.006443578097957e-01 -2.381800412454194e-02 1.024629673558348e-01 -3.078132859759354e-02 1.077206536536019e-01 -1.582137723294413e-02 2.320839561065799e-01 5.978739637389472e-01
            1.025016566703212e-01 -3.068607546734696e-02 1.006862770853513e-01 -2.391183872539012e-02 2.320725463921960e-01 5.978336723499936e-01 1.077779525741192e-01 -1.575158941227629e-02
            1.077626078506022e-01 -1.589470983978377e-02 2.320970434949742e-01 5.978650981380489e-01 9.508416159086876e-02 -3.995533259526370e-02 9.768868597958832e-02 -3.486214538009135e-02
            2.320662785530611e-01 5.978522005212771e-01 1.077627623900041e-01 -1.581563822619907e-02 9.765101062365868e-02 -3.481473529205376e-02 9.504916746699348e-02 -3.990520520262128e-02
373189324.4370308518 8.968806318437653e-02 -2.819120819546755e-02 9.162722795025227e-02 -3.497724505058759e-02 1.057989349872746e-01 -3.190788164705158e-02 3.227347320027267e-01 5.551804747099683e-01
            9.163542375123886e-02 -3.492653089880930e-02 8.966083198028463e-02 -2.826566914419913e-02 3.227184149442694e-01 5.552480454243796e-01 1.059028232662426e-01 -3.189330221298373e-02
            1.058346008067879e-01 -3.182367007836433e-02 3.226739797690176e-01 5.552332556983202e-01 8.267524026959590e-02 -4.294519952361222e-02 8.613015769236078e-02 -3.834437852714804e-02
            3.227659766692935e-01 5.551726878053390e-01 1.058822209452539e-01 -3.187417193068940e-02 8.607070832159562e-02 -3.842124424870464e-02 8.266824458720802e-02 -4.291327553102982e-02
373688907.4228523970 7.791235464388671e-02 -2.881541931277457e-02 8.003284622104732e-02 -3.547353106177033e-02 1.018121662416292e-01 -4.797284813159149e-02 4.060554856715005e-01 4.987070969264799e-01
            8.002830408209674e-02 -3.548830418919086e-02 7.798107107987022e-02 -2.877708728855598e-02 4.060452526109228e-01 4.986973342565540e-01 1.017302073502526e-01 -4.797945554125005e-02
            1.017879959047768e-01 -4.796697866061389e-02 4.060235187106477e-01 4.986852091952672e-01 6.987144421430806e-02 -4.199262417696623e-02 7.388202221000924e-02 -3.812738326511571e-02
            4.060617603783566e-01 4.986969159409453e-01 1.017362877888620e-01 -4.798402608647825e-02 7.381469714198910e-02 -3.815360124901922e-02 6.989726345507785e-02 -4.197247712050427e-02
374188490.4086738825 6.650691273950923e-02 -2.561972548710340e-02 6.878520711952750e-02 -3.225178406865305e-02 9.540677733897567e-02 -6.405473892386908e-02 4.798157378075165e-01 4.292668347403362e-01
            6.872824492850980e-02 -3.213444498706110e-02 6.649220437833521e-02 -2.556868953369965e-02 4.798222326555315e-01 4.292808489765812e-01 9.536715674150467e-02 -6.407240187349546e-02
            9.550622138763208e-02 -6.403004233063758e-02 4.797827586000091e-01 4.292663347747097e-01 5.781184218360024e-02 -3.692283407216084e-02 6.194547939936907e-02 -3.401419955482596e-02
            4.797530850913535e-01 4.293433215578669e-01 9.533819513941498e-02 -6.414361702050037e-02 6.205393575919971e-02 -3.403720457999414e-02 5.799747262718588e-02 -3.693722703924179e-02
374688073.3944954276 5.669155990578314e-02 -1.888886505635275e-02 5.908501394111101e-02 -2.550240079754339e-02 8.651971118691257e-02 -7.985835406439168e-02 5.417423397198463e-01 3.486102760848379e-01
            5.909199980097642e-02 -2.544999314030214e-02 5.675798926049369e-02 -1.888932964067474e-02 5.416958927205008e-01 3.487037672683407e-01 8.645199922808930e-02 -7.973429717535312e-02
            8.648409284053250e-02 -7.976825291473157e-02 5.417651258045552e-01 3.486539556480548e-01 4.798953442766679e-02 -2.835288966785201e-02 5.195083906624207e-02 -2.634455546965390e-02
            5.418134752753903e-01 3.486283356277481e-01 8.643745558293003e-02 -7.984810811101808e-02 5.182596266020648e-02 -2.634108422587462e-02 4.796894418126230e-02 -2.833417298473499e-02
375187656.3803169131 4.958945430116934e-02 -9.379059294041729e-03 5.208169323128380e-02 -1.577110339956471e-02 7.458944883497616e-02 -9.452882073134146e-02 5.900098595402208e-01 2.587606932273017e-01
            5.208192793728170e-02 -1.582745464313121e-02 4.953420050911813e-02 -9.479132994945927e-03 5.901273828315456e-01 2.587772078636673e-01 7.456874454388046e-02 -9.462470833780226e-02
            7.456431197754676e-02 -9.459936503944529e-02 5.900917923243558e-01 2.587825571833892e-01 4.122320366771924e-02 -1.705001658627738e-02 4.464521460366652e-02 -1.568513354899456e-02
            5.901247936533179e-01 2.587765809220004e-01 7.454648216318810e-02 -9.466091323968828e-02 4.463880353720386e-02 -1.576016460970371e-02 4.124277306518639e-02 -1.703114882501065e-02
375687239.3661384583 4.598791716617666e-02 1.916442273631947e-03 4.859519927434578e-02 -4.185368910818127e-03 5.974407563664205e-02 -1.078387554893361e-01 6.230484274074451e-01 1.621704003072616e-01
            4.865911743592042e-02 -4.321209601112634e-03 4.593759259912719e-02 1.943294199677221e-03 6.230945182081005e-01 1.622329759348960e-01 5.977498217991085e-02 -1.078622065599646e-01
            5.980733800179568e-02 -1.078681640125503e-01 6.230859832797117e-01 1.622638863924226e-01 3.832755331631395e-02 -4.006747771432376e-03 4.098479913515974e-02 -3.254178750045944e-03
            6.231367831938671e-01 1.621924095854184e-01 5.977181361256571e-02 -1.078560668756761e-01 4.099130617862906e-02 -3.260604674983386e-03 3.841618832492141e-02 -3.993013663749170e-03
376186822.3519600034 4.620863865095191e-02 1.394411856158716e-02 4.913421221933059e-02 7.857965983223735e-03 4.211030597013000e-02 -1.186825540793168e-01 6.399769901656372e-01 6.162460072018093e-02
            4.914117706754228e-02 7.869396325823310e-03 4.624215552622157e-02 1.387508842352248e-02 6.400314933183139e-01 6.170384667368273e-02 4.207933696284402e-02 -1.187286442045670e-01
            4.216890355436488e-02 -1.186370276767439e-01 6.400714049349706e-01 6.164903433493530e-02 3.982196584624463e-02 9.223132757077939e-03 4.148238951680076e-02 9.794780702750883e-03
            6.400275116990130e-01 6.169318255848740e-02 4.212960685016512e-02 -1.187497475390111e-01 4.148690172877374e-02 9.776425162905816e-03 3.988308615070883e-02 9.228659062913537e-03
376686405.3377814889 5.039861950805582e-02 2.510065110609771e-02 5.351007940561568e-02 1.908891294852276e-02 2.216412843203936e-02 -1.264583578784826e-01 6.404226409351811e-01 -3.988362773155521e-02
            5.353686904063149e-02 1.914684858287675e-02 5.027664005050431e-02 2.515155434060455e-02 6.404641953636244e-01 -3.992940301240814e-02 2.219176076154829e-02 -1.264217005389135e-01
            2.219286416074898e-02 -1.263789668599585e-01 6.404189351826328e-01 -3.990542943224500e-02 4.546366201454428e-02 2.140792613612060e-02 4.606120519564901e-02 2.209939566610027e-02
            6.404783146545493e-01 -3.992361921929826e-02 2.220437823450297e-02 -1.264787286061279e-01 4.605892006826182e-02 2.204565979959209e-02 4.542290952740653e-02 2.142614150056737e-02
377185988.3236030340 5.795755910743655e-02 3.438109927912291e-02 6.144015793143773e-02 2.837121290743420e-02 5.754128390797439e-04 -1.303656293794464e-01 6.246093951706205e-01 -1.397158694764776e-01
            6.152486091973426e-02 2.843214825963136e-02 5.796004175611852e-02 3.438457926220315e-02 6.245666955045825e-01 -1.397171033335913e-01 5.229956065857949e-04 -1.304021938496472e-01
            5.693387634682542e-04 -1.303463768528402e-01 6.246024472828624e-01 -1.397211107916628e-01 5.444220971911391e-02 3.119947837021141e-02 5.407019380691165e-02 3.233272357897447e-02
            6.245386275930581e-01 -1.397352001765040e-01 5.683434839009210e-04 -1.303995301292099e-01 5.401115934436544e-02 3.231238099973492e-02 5.455829493733521e-02 3.117263363832105e-02
377685571.3094245195 6.805269720950814e-02 4.069717653379261e-02 7.199303422621245e-02 3.469473569068201e-02 -2.159836049680809e-02 -1.301114807431419e-01 5.932137986713090e-01 -2.350127605791756e-01
            7.200360852498822e-02 3.471154677267268e-02 6.807455543190262e-02 4.071511394917085e-02 5.932501351738311e-01 -2.350139395765266e-01 -2.169050688312188e-02 -1.300884545882869e-01
            -2.175264397427826e-02 -1.302169651956212e-01 5.932142054459251e-01 -2.350732444197538e-01 6.611050680763977e-02 3.760904843030363e-02 6.476843463298916e-02 3.961699457193291e-02
            5.932534871431860e-01 -2.350553422418729e-01 -2.175526645655832e-02 -1.301842694899478e-01 6.485128703178980e-02 3.950093872441082e-02 6.617743939289822e-02 3.761259256329135e-02
378185154.2952460647 7.960782541844273e-02 4.342836010941929e-02 8.398063310968212e-02 3.731467331270476e-02 -4.366684730170920e-02 -1.257304477104617e-01 5.476285540966478e-01 -3.234899965715828e-01
            8.397004686419503e-02 3.721077632803168e-02 7.966104043598705e-02 4.347269636117099e-02 5.476664335369429e-01 -3.235573504860644e-01 -4.362523247902132e-02 -1.256880600602968e-01
            -4.365550382123810e-02 -1.257022849535694e-01 5.476610080225190e-01 -3.236080960332690e-01 7.908919851315005e-02 4.001500872208846e-02 7.718769753595586e-02 4.318561524182631e-02
            5.476676676241491e-01 -3.235422531313832e-01 -4.364695087537278e-02 -1.257197802239302e-01 7.706384777230428e-02 4.312040741009929e-02 7.908443961059647e-02 4.002890895323992e-02
378684737.2810675502 9.137884653129393e-02 4.243742358930404e-02 9.622571821503918e-02 3.600047600280766e-02 -6.442115941793453e-02 -1.172450117193156e-01 4.894295650324744e-01 -4.034283400570812e-01
            9.617396734953811e-02 3.599945924022239e-02 9.149624606499307e-02 4.241834349132968e-02 4.894237737677370e-01 -4.034254699231247e-01 -6.444502186655807e-02 -1.173161741337088e-01
            -6.436042583074045e-02 -1.172313691300159e-01 4.894233835138151e-01 -4.033677397429636e-01 9.205223218640422e-02 3.836392300740914e-02 8.987234568689861e-02 4.285973379144196e-02
            4.893862847729317e-01 -4.034250230068275e-01 -6.440247489763440e-02 -1.171801276984752e-01 8.985608277878501e-02 4.281299079377571e-02 9.213405978723431e-02 3.844463075511750e-02
379184320.2668890953 1.023400756410029e-01 3.785093664079846e-02 1.074946475451619e-01 3.099370080570986e-02 -8.311737689502717e-02 -1.053144868371315e-01 4.200400429419594e-01 -4.728443235239515e-01
            1.074058756601118e-01 3.099818212547902e-02 1.023629313880313e-01 3.784622236349098e-02 4.200580212822790e-01 -4.729014651108054e-01 -8.309865728902271e-02 -1.052272203033844e-01
            -8.310743560580540e-02 -1.053302594194789e-01 4.200351968950767e-01 -4.728297602901267e-01 1.038232079001570e-01 3.294946479845853e-02 1.017462821034882e-01 3.881253975388160e-02
            4.200002433775828e-01 -4.729012329056705e-01 -8.314073844853277e-02 -1.053176343312032e-01 1.017499290306547e-01 3.884511476845545e-02 1.038554972486304e-01 3.294461892116875e-02
379683903.2527105808 1.112993610678362e-01 3.012653059430341e-02 1.166652893647357e-01 2.267756920616271e-02 -9.920069433300775e-02 -9.042766503890728e-02 3.414521628900109e-01 -5.306713357224717e-01
            1.167566546545716e-01 2.270197601452743e-02 1.112970542689671e-01 3.009844299862625e-02 3.414921980774684e-01 -5.306990890205747e-01 -9.915392054772028e-02 -9.051296213854169e-02
            -9.913105038238895e-02 -9.055907984013706e-02 3.414499982859208e-01 -5.306987937048021e-01 1.133659383886861e-01 2.429003507427380e-02 1.117349226963704e-01 3.157134356559549e-02
            3.414620181955312e-01 -5.306840754067642e-01 -9.919761979509914e-02 -9.055588564728954e-02 1.117437817017108e-01 3.151580517492001e-02 1.133827474441788e-01 2.423801618356148e-02
380183486.2385321259 1.174879477898899e-01 2.007016811317696e-02 1.230218298514375e-01 1.195493551937274e-02 -1.123267114918443e-01 -7.351688841702675e-02 2.554793953363770e-01 -5.759356005386302e-01
            1.231112682497989e-01 1.199708535900607e-02 1.175298999197528e-01 2.002816820378231e-02 2.555927260429346e-01 -5.759606308119544e-01 -1.123666264269484e-01 -7.358926892523793e-02
            -1.123110616111379e-01 -7.355362580333559e-02 2.555806961656225e-01 -5.759717115183259e-01 1.197443586388609e-01 1.307593195777118e-02 1.191177500537794e-01 2.165967831343583e-02
            2.555076428027276e-01 -5.759007746199873e-01 -1.123099265766515e-01 -7.350962948684335e-02 1.191821517450572e-01 2.175989182703725e-02 1.196945744961994e-01 1.313327145309793e-02
380683069.2243536115 1.204192142419840e-01 8.563801037595372e-03 1.259425065655558e-01 -2.363926009152271e-04 -1.222847685138598e-01 -5.511933662489227e-02 1.638949934741963e-01 -6.077776864382269e-01
            1.259433862515247e-01 -1.776512518143108e-04 1.202858277587569e-01 8.462227546560737e-03 1.639172764438400e-01 -6.078506376004427e-01 -1.223426432881552e-01 -5.510316159164484e-02
            -1.223541761822979e-01 -5.515229568918183e-02 1.639309319131674e-01 -6.078422074976193e-01 1.224838043524798e-01 7.794944915828729e-04 1.231867000600792e-01 1.043026823704580e-02
            1.639498909650668e-01 -6.077896771645895e-01 -1.222604944891379e-01 -5.519564887103576e-02 1.231352745201128e-01 1.043608810545674e-02 1.225422339162837e-01 7.463050860633531e-04
381182652.2101751566 1.196742678240110e-01 -3.342962347454498e-03 1.251323347041956e-01 -1.289884864448673e-02 -1.294168257090133e-01 -3.575853154435904e-02 6.863378516466709e-02 -6.256858091439143e-01
            1.250845072603073e-01 -1.284964592458943e-02 1.196430726158891e-01 -3.245161680877200e-03 6.861707317734632e-02 -6.255721206165005e-01 -1.294195574865818e-01 -3.577161237468199e-02
            -1.293892029784868e-01 -3.581268740009447e-02 6.867046235666087e-02 -6.256415937030624e-01 1.214358718703236e-01 -1.186436387953584e-02 1.236326512891134e-01 -1.524846059318296e-03
            6.865535106302117e-02 -6.255803305328864e-01 -1.294379363183377e-01 -3.575982480983814e-02 1.236353361486303e-01 -1.600601989263401e-03 1.214453396264402e-01 -1.180844135268701e-02
381682235.1959966421 1.153183762872338e-01 -1.436323774808550e-02 1.204202349381879e-01 -2.471881523253383e-02 -1.336574602990626e-01 -1.597098016241597e-02 -2.851371808045662e-02 -6.289332285639697e-01
            1.204492999938108e-01 -2.486548097195806e-02 1.153561985278320e-01 -1.440204697508421e-02 -2.845214994251336e-02 -6.289706677335412e-01 -1.336637070924090e-01 -1.595019598094186e-02
            -1.336624880148583e-01 -1.591244460159209e-02 -2.839770783422888e-02 -6.290100862707964e-01 1.167307339289191e-01 -2.351445836273837e-02 1.205924167658783e-01 -1.301384535501360e-02
            -2.849637343610716e-02 -6.288800812161053e-01 -1.336121015429311e-01 -1.587717330081032e-02 1.205784649212381e-01 -1.300649522641877e-02 1.166040566702871e-01 -2.360466054323953e-02
382181818.1818181872 1.078885137894781e-01 -2.381676433480037e-02 1.124344905890286e-01 -3.495995908505689e-02 -1.352397487054990e-01 4.039493804458546e-03 -1.252259803954625e-01 -6.176405407735024e-01
            1.123795961841449e-01 -3.506296257326372e-02 1.079234604434696e-01 -2.382142747565228e-02 -1.252914759023968e-01 -6.175496444827275e-01 -1.351971466656086e-01 4.108198913968309e-03
            -1.352179923238714e-01 4.018000664140633e-03 -1.252044823338893e-01 -6.176329704381079e-01 1.085260246790002e-01 -3.334451523944898e-02 1.143300149279137e-01 -2.292039336378807e-02
            -1.252300473218463e-01 -6.176500783786989e-01 -1.351447088046128e-01 4.053357129229673e-03 1.143590942233980e-01 -2.296128473362418e-02 1.085738606700078e-01 -3.329597933022496e-02
382681401.1676397324 9.786136546174927e-02 -3.059788136629961e-02 1.016661329460052e-01 -4.233569162910297e-02 -1.341762325187153e-01 2.401771817100055e-02 -2.197444007486699e-01 -5.915519109367848e-01
            1.016347608851267e-01 -4.240391321358101e-02 9.785059314239784e-02 -3.057510540691526e-02 -2.196770313176114e-01 -5.915244348597422e-01 -1.342405902596571e-01 2.404728565082433e-02
            -1.342269631023158e-01 2.405227285564999e-02 -2.196379283136376e-01 -5.915133189082470e-01 9.786486018470034e-02 -4.017149081765493e-02 1.054283009872092e-01 -3.033220794852534e-02
            -2.196305304158289e-01 -5.915535431867787e-01 -1.341773356687841e-01 2.406083767081611e-02 1.054405378560119e-01 -3.037990440603774e-02 9.791169587668425e-02 -4.005522709903489e-02
383180984.1534612179 8.612097986793700e-02 -3.393529689928600e-02 8.898387274997953e-02 -4.638457616305924e-02 -1.306022693885830e-01 4.403957913913156e-02 -3.095166339473909e-01 -5.509521238845392e-01
            8.903705272184465e-02 -4.639564587060043e-02 8.612721665005083e-02 -3.394181671966830e-02 -3.094913268334741e-01 -5.509538828352477e-01 -1.306041499687594e-01 4.391537321060315e-02
            -1.306671148887300e-01 4.404537863291234e-02 -3.094745053537409e-01 -5.509160315099639e-01 8.574827579403325e-02 -4.334408500872867e-02 9.474321274253018e-02 -3.474005365218610e-02
            -3.094948538485870e-01 -5.509467580204338e-01 -1.306202396876387e-01 4.399214080502659e-02 9.473101266908063e-02 -3.466821051414568e-02 8.567920974217519e-02 -4.337451958314575e-02
383680567.1392827630 7.382194172687578e-02 -3.359400947681234e-02 7.570627535920495e-02 -4.633355598259667e-02 -1.244389441427884e-01 6.374084258251513e-02 -3.923194327269570e-01 -4.965941792337119e-01
            7.571772590532357e-02 -4.641903310806417e-02 7.375236222999020e-02 -3.366293644575342e-02 -3.923748812931502e-01 -4.965248983994825e-01 -1.243863166326021e-01 6.369105320530424e-02
            -1.244757584381406e-01 6.380890930917961e-02 -3.922513368635102e-01 -4.965411463962841e-01 7.295267329643250e-02 -4.272521429059355e-02 8.334642071525269e-02 -3.542247632871262e-02
            -3.922969597771637e-01 -4.965244769973103e-01 -1.243830559481818e-01 6.375178425149851e-02 8.341230775061845e-02 -3.545905400284863e-02 7.297434133756377e-02 -4.260905834285088e-02
384180150.1251042485 6.217188032858261e-02 -2.946215488480117e-02 6.289991891093125e-02 -4.236741578432492e-02 -1.154054220845843e-01 8.302170678549325e-02 -4.658300809659395e-01 -4.293044493860392e-01
            6.287604323004090e-02 -4.244707339134355e-02 6.211236479975089e-02 -2.944136748912091e-02 -4.659899321121464e-01 -4.292889108977478e-01 -1.153989283714720e-01 8.301797685083420e-02
            -1.154819766596634e-01 8.315255382141536e-02 -4.658695923152044e-01 -4.293240321963077e-01 6.106743089834837e-02 -3.809057117137846e-02 7.234826873373233e-02 -3.252442684432233e-02
            -4.658398285066931e-01 -4.292830976798728e-01 -1.154314078270514e-01 8.311134465913203e-02 7.235082229980323e-02 -3.253184568609346e-02 6.116550703468952e-02 -3.807943837534989e-02
384679733.1109257936 5.219438417383671e-02 -2.169930473444387e-02 5.184967019586319e-02 -3.458332236867273e-02 -1.032755750123257e-01 1.016142288422244e-01 -5.280269152069463e-01 -3.508381771672072e-01
            5.178463340871297e-02 -3.459772684637276e-02 5.224441872913067e-02 -2.170584290566972e-02 -5.281249602241507e-01 -3.508285120653852e-01 -1.032120202237036e-01 1.016534797629813e-01
            -1.032887631431025e-01 1.015608707742348e-01 -5.281127538314747e-01 -3.508891826695875e-01 5.127549841597838e-02 -3.004181963175032e-02 6.293212678740306e-02 -2.630212821067541e-02
            -5.281194584841462e-01 -3.508230827047633e-01 -1.033020343254819e-01 1.016278109304519e-01 6.297693218635890e-02 -2.631468324981632e-02 5.126533120684282e-02 -3.002869755836666e-02
385179316.0967472792 4.535468411401100e-02 -1.126954105652463e-02 4.360989041418103e-02 -2.390932858225910e-02 -8.786776819091011e-02 1.187075638410902e-01 -5.768795753302152e-01 -2.631314020043121e-01
            4.364515100416407e-02 -2.383502230877915e-02 4.521727308607669e-02 -1.122403744505633e-02 -5.768747401061073e-01 -2.631321219854575e-01 -8.794272548063192e-02 1.187422020711051e-01
            -8.784043868436434e-02 1.187202307293628e-01 -5.768586211881307e-01 -2.630731795403812e-01 4.448633038467395e-02 -1.924648465522438e-02 5.627944503043199e-02 -1.727905668076036e-02
            -5.767813079353199e-01 -2.631931750534429e-01 -8.789245273110236e-02 1.187370600601162e-01 5.621865648159772e-02 -1.743784726798243e-02 4.454142626027554e-02 -1.915264225764229e-02
385678899.0825688243 4.200706015500616e-02 8.777252060544439e-04 3.913475944721833e-02 -1.121976163958489e-02 -6.927236944619819e-02 1.336403402328271e-01 -6.106477953933692e-01 -1.686250466966134e-01
            3.915246364828148e-02 -1.127317177557263e-02 4.201528247800757e-02 9.123478342962730e-04 -6.107815739690796e-01 -1.685460275264534e-01 -6.928929839687437e-02 1.335976935686610e-01
            -6.922091487592073e-02 1.336551927216167e-01 -6.107913934491985e-01 -1.685191252188782e-01 4.153170377413489e-02 -6.817336963402029e-03 5.290550840888926e-02 -6.955280178890124e-03
            -6.107670358333045e-01 -1.685744112910542e-01 -6.922946317934904e-02 1.336657606480478e-01 5.275566577550952e-02 -6.842808972907947e-03 4.156698045011158e-02 -6.703243133613105e-03
386178482.0683903098 4.272519263870923e-02 1.354067749045912e-02 3.881000903327830e-02 2.114364343994896e-03 -4.759640746266852e-02 1.456743912504471e-01 -6.288306265104125e-01 -6.988278371415736e-02
            3.880170251105135e-02 2.147089210170466e-03 4.272315896788484e-02 1.345224040708361e-02 -6.289267246173390e-01 -6.982379862190836e-02 -4.760934578864880e-02 1.455819168488593e-01
            -4.760561805571101e-02 1.456448259432608e-01 -6.288552498347501e-01 -6.987426690436138e-02 4.279899308474854e-02 5.786828852471152e-03 5.330542465195891e-02 4.140543255327840e-03
            -6.289049567229130e-01 -6.984694909298286e-02 -4.752098800993941e-02 1.455528940239595e-01 5.321767078794280e-02 4.111409473753727e-03 4.275387281532850e-02 5.780517472666831e-03
386678065.0542118549 4.745644148069095e-02 2.514150319441916e-02 4.258839026656143e-02 1.478321493673428e-02 -2.345380263097979e-02 1.537626751850747e-01 -6.306663234276954e-01 2.999915551118359e-02
            4.254967125632675e-02 1.472424017991025e-02 4.741136870328742e-02 2.516454513393800e-02 -6.306920672158857e-01 3.000131242290504e-02 -2.340288378724075e-02 1.538146678893521e-01
            -2.343909575979443e-02 1.538063992736956e-01 -6.307458013171394e-01 3.008460278314987e-02 4.781882240615927e-02 1.729185825847471e-02 5.713400155903365e-02 1.421444606796538e-02
            -6.307162412384538e-01 3.007564387122201e-02 -2.347528155279572e-02 1.537879232760075e-01 5.712114789113218e-02 1.416265581599778e-02 4.782715984470135e-02 1.736223045832647e-02
387177648.0400333405 5.554784549084160e-02 3.473873301697955e-02 4.993700860826947e-02 2.531349054574531e-02 2.276866171818269e-03 1.576328114547321e-01 -6.165942669712654e-01 1.284457793760495e-01
            4.995475174354261e-02 2.526251966882196e-02 5.554602308125074e-02 3.477506233486675e-02 -6.165647920799601e-01 1.284489626477101e-01 2.267264571633452e-03 1.576184476485395e-01
            2.225673454332921e-03 1.575724583034355e-01 -6.165462269147116e-01 1.284325727740158e-01 5.622530557548013e-02 2.656457551182027e-02 6.428422626320830e-02 2.230236939417805e-02
            -6.165776281196864e-01 1.284320362917492e-01 2.280995056274283e-03 1.576426260136681e-01 6.420373363967134e-02 2.235106695857377e-02 5.629593486985065e-02 2.646004355926693e-02
387677231.0258548856 6.614658133801816e-02 4.129365318500101e-02 6.000490276163870e-02 3.302433779203792e-02 2.859396026014302e-02 1.566742044612639e-01 -5.871402832695004e-01 2.227242742927936e-01
            6.001505871873830e-02 3.300579505712363e-02 6.626324211357319e-02 4.125390878753741e-02 -5.870768553433588e-01 2.227004042149499e-01 2.857264724221330e-02 1.566388562241833e-01
            2.861823062407038e-02 1.566502514659877e-01 -5.870931827583773e-01 2.227143454980865e-01 6.716923515288935e-02 3.251715283088327e-02 7.356771035108964e-02 2.760986743047132e-02
            -5.871301320508533e-01 2.226321447365974e-01 2.861788365231297e-02 1.566191051383251e-01 7.356628634548178e-02 2.764176063144198e-02 6.710127906181865e-02 3.258675846668809e-02
388176814.0116764307 7.824538768496198e-02 4.404092021730428e-02 7.170624290429158e-02 3.708606768956317e-02 5.450719133629559e-02 1.508852321982184e-01 -5.436684041922484e-01 3.105762221515698e-01
            7.168976682745133e-02 3.707635389779968e-02 7.819639063796992e-02 4.403695570952203e-02 -5.436010865905777e-01 3.105580225232212e-01 5.449776851536726e-02 1.509235333278545e-01
            5.451483121486127e-02 1.508754985042913e-01 -5.436237973775386e-01 3.105092162352890e-01 7.923523017060986e-02 3.471819409177854e-02 8.399744724115793e-02 2.935231537674481e-02
            -5.435591526246412e-01 3.105597928887817e-01 5.451874891237037e-02 1.508472862471875e-01 8.401934603112192e-02 2.942343552882373e-02 7.923850665909542e-02 3.475559652265599e-02
388676396.9974979162 9.053469453604265e-02 4.294008109700067e-02 8.369885067786736e-02 3.719554257348227e-02 7.891257866861746e-02 1.406553607239398e-01 -4.874166863039366e-01 3.900649554354436e-01
            8.376230113035642e-02 3.723425483273204e-02 9.045097587601329e-02 4.301328414542093e-02 -4.873946566143496e-01 3.900122108174492e-01 7.892132878009253e-02 1.406187374174745e-01
            7.898770480615824e-02 1.406006803498544e-01 -4.874165583817334e-01 3.899942558116342e-01 9.133325585924626e-02 3.300679071467791e-02 9.451619353548940e-02 2.777840097129851e-02
            -4.874228243636862e-01 3.901301874005894e-01 7.894678502077238e-02 1.405599489599532e-01 9.452556662006484e-02 2.771925133983245e-02 9.127720150677419e-02 3.308157955531642e-02
389175979.9833194613 1.016091686656767e-01 3.819745532312199e-02 9.497141096561097e-02 3.377466810788336e-02 1.011122426045697e-01 1.262677367689689e-01 -4.201981779331102e-01 4.594681013146864e-01
            9.499255228574163e-02 3.386788842357991e-02 1.017118389827982e-01 3.827429623772702e-02 -4.202192457986370e-01 4.594581011014313e-01 1.009615994571494e-01 1.262964460999635e-01
            1.010126413490887e-01 1.262424946678571e-01 -4.202395604395555e-01 4.594946220220880e-01 1.021236337311767e-01 2.769439706719562e-02 1.039516753193387e-01 2.272781001368461e-02
            -4.202123885923263e-01 4.594563456603977e-01 1.010675937084998e-01 1.262763604267808e-01 1.039730299746133e-01 2.272770736815491e-02 1.020029841641040e-01 2.773912560334416e-02
389675562.9691409469 1.108515362008534e-01 3.038208870139327e-02 1.043680891598950e-01 2.718826244014080e-02 1.201880732106649e-01 1.086115946698791e-01 -3.435864786657801e-01 5.177127914017444e-01
            1.044388043799986e-01 2.717754418830565e-02 1.108467403435707e-01 3.037012400213406e-02 -3.436424949623005e-01 5.176511322615394e-01 1.202082675743188e-01 1.085647835755954e-01
            1.201307913818978e-01 1.085870666163860e-01 -3.435470731721103e-01 5.176869250911464e-01 1.106148584231239e-01 1.932512065776903e-02 1.112590627379965e-01 1.486036821280006e-02
            -3.436993730068217e-01 5.175904799337220e-01 1.201903854707604e-01 1.085668753204122e-01 1.112476115767815e-01 1.478375599365700e-02 1.106216140510694e-01 1.929086907007031e-02
390175145.9549624920 1.171595204471530e-01 2.017376957100964e-02 1.111564570661163e-01 1.814370114081942e-02 1.358594164465279e-01 8.825888269092012e-02 -2.595660874821702e-01 5.634554534178530e-01
            1.111278378829882e-01 1.813511708530609e-02 1.171769123598743e-01 2.018770908781610e-02 -2.595297293062755e-01 5.635115369872750e-01 1.358763899921969e-01 8.829496048459459e-02
            1.359935158832810e-01 8.831640946914938e-02 -2.595487713861604e-01 5.634546298580363e-01 1.161737003050952e-01 8.740302399600088e-03 1.157942558188188e-01 4.967429471096004e-03
            -2.594681263077170e-01 5.634472058808018e-01 1.359114997938846e-01 8.829641387963058e-02 1.156707054462845e-01 4.990256408437216e-03 1.162372540673977e-01 8.799964992149070e-03
390674728.9407839775 1.201286328789151e-01 8.642816546241787e-03 1.146253670944672e-01 7.629945399365533e-03 1.480818707700354e-01 6.614985732047760e-02 -1.696612355984153e-01 5.962687014183262e-01
            1.146704353747484e-01 7.544487189224534e-03 1.201566439225303e-01 8.632589990045207e-03 -1.696317364781765e-01 5.962020043620430e-01 1.480898611023752e-01 6.611856987685527e-02
            1.481232843780299e-01 6.613445290460965e-02 -1.696191459892223e-01 5.962123984896857e-01 1.182192246972866e-01 -2.909869015739612e-03 1.169801875052104e-01 -5.931161080144698e-03
            -1.695784757811372e-01 5.961994235603976e-01 1.481373806921382e-01 6.614230916815267e-02 1.169778486610873e-01 -5.938084414856325e-03 1.182383031254507e-01 -2.872486705402811e-03
391174311.9266055226 1.195251122496292e-01 -3.287423649808578e-03 1.146888348056895e-01 -3.305225822313822e-03 1.567731288802506e-01 4.279349193940875e-02 -7.587638032420981e-02 6.151047990610247e-01
            1.146643005898203e-01 -3.287644802086679e-03 1.195804375664093e-01 -3.232939934491347e-03 -7.586085758617669e-02 6.150942053041427e-01 1.567752759717949e-01 4.272535714302647e-02
            1.567847531301955e-01 4.269018852160732e-02 -7.584778894254961e-02 6.149771409644924e-01 1.165851210115947e-01 -1.461523314081352e-02 1.147650094664855e-01 -1.684380247513936e-02
            -7.585196278930201e-02 6.150720260259739e-01 1.567473327182400e-01 4.271230711902733e-02 1.147978375799432e-01 -1.690765571666857e-02 1.165440896225306e-01 -1.457094690857525e-02
391673894.9124270082 1.152870565903456e-01 -1.440503000013488e-02 1.112263231142386e-01 -1.364479536881870e-02 1.619668476756540e-01 1.861024608746998e-02 1.985277726181338e-02 6.196103387459048e-01
            1.112145200930489e-01 -1.361732039085395e-02 1.152968490117561e-01 -1.429425687083319e-02 1.994933476525964e-02 6.196373071402135e-01 1.619423811429493e-01 1.862719569949342e-02
            1.618565599554285e-01 1.862023721537919e-02 1.986662527572388e-02 6.195835512564584e-01 1.114301136612505e-01 -2.540872516614661e-02 1.092456342253963e-01 -2.681468029040929e-02
            1.987071300056723e-02 6.196479329884435e-01 1.619690821656352e-01 1.860775154283738e-02 1.092008814281975e-01 -2.676743583671951e-02 1.114405994096372e-01 -2.536767539747112e-02
392173477.8982485533 1.080040879959493e-01 -2.368025836897353e-02 1.047135518611655e-01 -2.231633453582259e-02 1.637100904930961e-01 -5.897771995071540e-03 1.155543566593140e-01 6.096382067102595e-01
            1.047535786893049e-01 -2.220888786098876e-02 1.079447922994788e-01 -2.370999761479914e-02 1.155473178566301e-01 6.095992570015613e-01 1.636988347384022e-01 -5.839353566382462e-03
            1.637837228448807e-01 -5.894395594805567e-03 1.155659022182270e-01 6.095211704010498e-01 1.032155790963077e-01 -3.402685889807334e-02 1.007708366437823e-01 -3.472916555567235e-02
            1.155173760210421e-01 6.095151375588057e-01 1.637151629811862e-01 -5.854864076727469e-03 1.007265326434793e-01 -3.484779727700735e-02 1.032913067570298e-01 -3.402929731843253e-02
392673060.8840700388 9.819758244794187e-02 -3.036267918734915e-02 9.574599721036921e-02 -2.839230168432328e-02 1.621872532173794e-01 -3.051333628581122e-02 2.090715422092083e-01 5.848426148841909e-01
            9.573350857617322e-02 -2.844931565697617e-02 9.819508085652824e-02 -3.037437094557017e-02 2.090283989125478e-01 5.848710469363290e-01 1.622383107461481e-01 -3.045902957172223e-02
            1.621751631000928e-01 -3.044820829112608e-02 2.090281445654050e-01 5.849029809580293e-01 9.279700100828846e-02 -3.984396239563881e-02 9.005222927244413e-02 -3.990203810972698e-02
            2.090414673239293e-01 5.849206391354603e-01 1.621512593904195e-01 -3.049742961050060e-02 9.010736518510634e-02 -3.986289117829869e-02 9.277298296289316e-02 -3.977039467674399e-02
393172643.8698915839 8.677531621841048e-02 -3.377972672143353e-02 8.525488835060459e-02 -3.126738070838625e-02 1.574453840950418e-01 -5.491254486090673e-02 2.979422745288782e-01 5.457992073172757e-01
            8.538009053348684e-02 -3.132032954889494e-02 8.684437974234291e-02 -3.384079320690223e-02 2.979836503918225e-01 5.458192699772219e-01 1.574036678232700e-01 -5.489142581013728e-02
            1.574132754309044e-01 -5.489765452478015e-02 2.979685768806968e-01 5.457282666371588e-01 8.087403341753718e-02 -4.197906955670134e-02 7.808809328287099e-02 -4.153806170179313e-02
            2.979796040133677e-01 5.457310621746272e-01 1.573857557803945e-01 -5.490819592994343e-02 7.804056029085486e-02 -4.153178310820488e-02 8.087962277608433e-02 -4.205165064131136e-02
393672226.8557131290 7.491282133085267e-02 -3.352004975415743e-02 7.438515535475811e-02 -3.058979207451716e-02 1.491297745672229e-01 -7.884870992518883e-02 3.801721543204623e-01 4.929704208131512e-01
            7.437304921268777e-02 -3.064712384289433e-02 7.494802051681525e-02 -3.347362195590221e-02 3.800841444757769e-01 4.929263282307886e-01 1.491729712627990e-01 -7.890369546824390e-02
            1.491739542583376e-01 -7.892687361043736e-02 3.801277809385553e-01 4.929349490304951e-01 6.886704095783326e-02 -4.045181035484909e-02 6.594059559095186e-02 -3.947500896832879e-02
            3.801009308622506e-01 4.929112224325080e-01 1.491884150172501e-01 -7.890918245346923e-02 6.589707204952641e-02 -3.952923691383266e-02 6.889954646381677e-02 -4.040026505938451e-02
394171809.8415346146 6.376943282893716e-02 -2.951131448118930e-02 6.417497742594563e-02 -2.639175246955506e-02 1.373525657054867e-01 -1.020237509477203e-01 4.531252513219780e-01 4.273567456020500e-01
            6.419531035956638e-02 -2.649148018730093e-02 6.375144060185156e-02 -2.963520489736915e-02 4.531990600036343e-01 4.273349883377762e-01 1.373769547119774e-01 -1.020540655807057e-01
            1.373734392222397e-01 -1.020393416196308e-01 4.531962497047612e-01 4.273687635726255e-01 5.794985771196472e-02 -3.516361168210868e-02 5.472699104965981e-02 -3.373194412665566e-02
            4.531451377086215e-01 4.273972438227199e-01 1.373379689589495e-01 -1.020698887763275e-01 5.473471593157914e-02 -3.372392932605407e-02 5.791000341229733e-02 -3.522741243468749e-02
394671392.8273561597 5.438713413720550e-02 -2.238429810019923e-02 5.573255113304875e-02 -1.903772599215697e-02 1.218421068763955e-01 -1.239001901094924e-01 5.149271831749246e-01 3.506596164586824e-01
            5.583240647767749e-02 -1.898640047259390e-02 5.435197684609031e-02 -2.233699876368054e-02 5.149301462917149e-01 3.507275042188980e-01 1.217239909120576e-01 -1.238525147804315e-01
            1.217654306082314e-01 -1.238621437756981e-01 5.149342737686973e-01 3.506799657697102e-01 4.917512699397569e-02 -2.674173283002895e-02 4.575771218314284e-02 -2.487163697299323e-02
            5.149339063559194e-01 3.506573197140151e-01 1.218456091829095e-01 -1.238741298350921e-01 4.580123848989414e-02 -2.475335646965853e-02 4.915826574894148e-02 -2.674974894437353e-02
395170975.8131776452 4.773536864723829e-02 -1.258238918230547e-02 5.025615922869953e-02 -9.206984985555427e-03 1.025178050113406e-01 -1.436311454615000e-01 5.636385040546428e-01 2.648766987959224e-01
            5.027322012586608e-02 -9.219619916433407e-03 4.781631731306343e-02 -1.257372297289612e-02 5.635824060147044e-01 2.648233261680987e-01 1.023946046139242e-01 -1.436512121273558e-01
            1.024456292202273e-01 -1.435640139777368e-01 5.635780295092632e-01 2.649168318656884e-01 4.363807803088505e-02 -1.590584747639760e-02 3.979174353233970e-02 -1.341151998052954e-02
            5.635777360566343e-01 2.648911824099827e-01 1.024876910072122e-01 -1.435607249103849e-01 3.982156141521034e-02 -1.343258468653558e-02 4.357903032017516e-02 -1.588714498772115e-02
395670558.7989991903 4.477493952426202e-02 -1.303727200793330e-03 4.819165512264096e-02 1.980104331525012e-03 7.958866534245097e-02 -1.605401001447948e-01 5.976788435148066e-01 1.723144842686792e-01
            4.824377838733078e-02 1.936480752493923e-03 4.468001088446438e-02 -1.310555768607474e-03 5.976430523091316e-01 1.723746114790866e-01 7.962052492493538e-02 -1.604122197549317e-01
            7.961392413245265e-02 -1.604101084097078e-01 5.976467706531992e-01 1.723323689652175e-01 4.172192753925299e-02 -3.858944103082393e-03 3.767167478249903e-02 -7.082714209279045e-04
            5.976839183325776e-01 1.722839919856890e-01 7.957942691501355e-02 -1.604643015815836e-01 3.764821259740014e-02 -7.913937448581468e-04 4.169449844249325e-02 -3.860181141725105e-03
396170141.7848206758 4.531542454777283e-02 1.018331978348264e-02 4.996110482058896e-02 1.334165944642690e-02 5.348295702554012e-02 -1.735336503232054e-01 6.162229651195035e-01 7.577921078930450e-02
            4.999458150971359e-02 1.331584835435244e-02 4.535649832711370e-02 1.023680524706227e-02 6.162498208436518e-01 7.574002294266990e-02 5.347552440050829e-02 -1.735126995032509e-01
            5.346007831975166e-02 -1.735523891776843e-01 6.162467867936007e-01 7.575226139261099e-02 4.389107101984190e-02 8.081463399197157e-03 3.943136305399596e-02 1.194420104058932e-02
            6.161893040890020e-01 7.577399564254501e-02 5.343955789970013e-02 -1.734676993142436e-01 3.943523711769169e-02 1.189585718606927e-02 4.387286612743038e-02 8.138377266159338e-03
396669724.7706422210 4.963852298806515e-02 2.075634476408560e-02 5.531728093194843e-02 2.350287709334963e-02 2.489386595702388e-02 -1.821054775535399e-01 6.190258414651154e-01 -2.219226290579333e-02
            5.540195147868820e-02 2.356734610880707e-02 4.966300742823770e-02 2.074338033008477e-02 6.190032183510414e-01 -2.212490086796586e-02 2.482329419414041e-02 -1.820227884423166e-01
            2.491903042162079e-02 -1.819841662954328e-01 6.190342949124503e-01 -2.209783300836886e-02 4.977477146528750e-02 1.870307280388391e-02 4.508826178533169e-02 2.337551030009282e-02
            6.190231278779111e-01 -2.211504446784598e-02 2.482319673512323e-02 -1.820751074387218e-01 4.499906927037379e-02 2.339454903051237e-02 4.970767158511830e-02 1.859586948898997e-02
397169307.7564637065 5.703180596361701e-02 2.920066413701408e-02 6.372180412329317e-02 3.150388188300131e-02 -5.319097520428008e-03 -1.854924456573314e-01 6.061323925192726e-01 -1.185932278237035e-01
            6.369564969731988e-02 3.151738012953705e-02 5.701260331610693e-02 2.927479219542115e-02 6.062088778818052e-01 -1.185796789509456e-01 -5.205817916504291e-03 -1.855449475151754e-01
            -5.347059108002978e-03 -1.854883640734947e-01 6.061129470491403e-01 -1.185448223384204e-01 5.852274329160766e-02 2.673716405502456e-02 5.374356641921302e-02 3.249567530983295e-02
            6.061964037801575e-01 -1.186332273379799e-01 -5.287557140853411e-03 -1.854763100078582e-01 5.372998320789303e-02 3.245463235222758e-02 5.853670364268045e-02 2.673132719256476e-02
397668890.7422852516 6.647744970132607e-02 3.483836111626289e-02 7.414538773080694e-02 3.631991729268937e-02 -3.581749076177246e-02 -1.834380675755873e-01 5.783839169156241e-01 -2.111767166824078e-01
            7.417836944860939e-02 3.640531259586176e-02 6.649497794345847e-02 3.485420074708277e-02 5.783819068822003e-01 -2.112122151723993e-01 -3.584949802964432e-02 -1.835513732650896e-01
            -3.578554970106482e-02 -1.835646298259551e-01 5.784708875812369e-01 -2.111639758229321e-01 6.945595067032914e-02 3.133896938909797e-02 6.462926860256676e-02 3.845285203904916e-02
            5.783418987136663e-01 -2.111749323791254e-01 -3.586508915705073e-02 -1.834567958167754e-01 6.466149699749001e-02 3.845785740002179e-02 6.943108105443418e-02 3.150362662350786e-02
398168473.7281067371 7.712803638278966e-02 3.708537480334979e-02 8.570491860298755e-02 3.775287590550973e-02 -6.573732240917936e-02 -1.761930142686804e-01 5.368941462789982e-01 -2.976902599289490e-01
            8.568390627911220e-02 3.769717149528098e-02 7.708043576606192e-02 3.703961194063807e-02 5.369343207708239e-01 -2.975829074620838e-01 -6.564705905436906e-02 -1.761470304993260e-01
            -6.564351191957818e-02 -1.761669506918523e-01 5.368980384349438e-01 -2.977004788487423e-01 8.116818135483099e-02 3.238322806410538e-02 7.652967634897630e-02 4.069369179349953e-02
            5.369065500845734e-01 -2.976138636869347e-01 -6.563652979411887e-02 -1.762265030721790e-01 7.653713477514112e-02 4.070593345748879e-02 8.109992094822564e-02 3.236007567168104e-02
398668056.7139282823 8.763448141466655e-02 3.573531745735544e-02 9.696260220154475e-02 3.540851089156084e-02 -9.371104465826936e-02 -1.638529616693293e-01 4.828547950806293e-01 -3.761806894151870e-01
            9.695950579930576e-02 3.532700254464410e-02 8.765742966396219e-02 3.576810002327453e-02 4.829374796314583e-01 -3.761988300818388e-01 -9.367965539016099e-02 -1.637596885642124e-01
            -9.366593709506041e-02 -1.637318216221517e-01 4.829291080195434e-01 -3.762233387294586e-01 9.245988194658999e-02 2.966059875357099e-02 8.833392251727649e-02 3.921673870219442e-02
            4.829763988362955e-01 -3.761500024314970e-01 -9.370418669635389e-02 -1.637501179936303e-01 8.834427333891558e-02 3.927992784897304e-02 9.245094877884517e-02 2.964869356113626e-02
399167639.6997498274 9.706339784456867e-02 3.117799953495089e-02 1.070210014995342e-01 2.975711201706808e-02 -1.189061810992550e-01 -1.469308583925061e-01 4.180206184977974e-01 -4.450779810738429e-01
            1.069968657479556e-01 2.972978925641966e-02 9.712044684105159e-02 3.121597872507826e-02 4.179842780797183e-01 -4.451098871530834e-01 -1.189450782400413e-01 -1.468961593124901e-01
            -1.189332583874396e-01 -1.470071077476518e-01 4.180382558585062e-01 -4.451052640166073e-01 1.021571816683294e-01 2.344069992112302e-02 9.889171370243635e-02 3.431957522062902e-02
            4.180154464194393e-01 -4.451429975132580e-01 -1.189359221619488e-01 -1.470175078334009e-01 9.892273099482554e-02 3.432832722560998e-02 1.022078388762649e-01 2.337067096519043e-02
399667222.6855713129 1.044993010288715e-01 2.395448819826658e-02 1.147456560817849e-01 2.125825455039776e-02 -1.409678781526979e-01 -1.263486530576329e-01 3.437901083083684e-01 -5.032381099460683e-01
            1.147578567624011e-01 2.127873062282103e-02 1.044654477982211e-01 2.400423107205334e-02 3.438492225220368e-01 -5.032271110852962e-01 -1.409368544288897e-01 -1.263586991556603e-01
            -1.409588805742998e-01 -1.263136138874228e-01 3.437713811285000e-01 -5.032609385235858e-01 1.096662804966343e-01 1.453301054057252e-02 1.073019450652150e-01 2.658107518807983e-02
            3.438118213825995e-01 -5.031909148600227e-01 -1.408543747133136e-01 -1.263418086726803e-01 1.073399877374912e-01 2.656136828958286e-02 1.095181510665847e-01 1.455924354123076e-02
400166805.6713928580 1.091853043356728e-01 1.489266886574873e-02 1.196546464472506e-01 1.067861554895961e-02 -1.590454071516095e-01 -1.028344900921986e-01 2.617986573281770e-01 -5.494737248983123e-01
            1.196526182877503e-01 1.073327546925506e-02 1.091841092583914e-01 1.496932137893167e-02 2.619140873723582e-01 -5.493662182289265e-01 -1.590683681955886e-01 -1.028279209386466e-01
            -1.591239745018367e-01 -1.028031919043211e-01 2.619189433494499e-01 -5.493708745875170e-01 1.138004660876682e-01 3.788513410577001e-03 1.128707844678072e-01 1.694874611577701e-02
            2.618476629996012e-01 -5.493783114602161e-01 -1.590831437143205e-01 -1.027516018787627e-01 1.127350297008038e-01 1.686634341824446e-02 1.136535308322902e-01 3.814547265236235e-03
400666388.6572143435 1.107622109053743e-01 4.828183351591207e-03 1.209773428649444e-01 -7.469032921928080e-04 -1.733126279617667e-01 -7.709646367519835e-02 1.741202491646693e-01 -5.828365823825534e-01
            1.210422614757252e-01 -7.361044617353714e-04 1.106827782375868e-01 4.843255602723466e-03 1.740771205281650e-01 -5.827713231732105e-01 -1.732963436246049e-01 -7.711066650617020e-02
            -1.733465504570229e-01 -7.717559559246435e-02 1.741418049750116e-01 -5.827242092808836e-01 1.143493336112278e-01 -7.685464390433961e-03 1.150107014243893e-01 6.077883739715483e-03
            1.740796667215700e-01 -5.827063059065718e-01 -1.732720861288722e-01 -7.706861159572791e-02 1.149049114835330e-01 6.056742166821743e-03 1.143132998938313e-01 -7.792489696618062e-03
401165971.6430358887 1.089504138385927e-01 -5.223700568250842e-03 1.188705593725515e-01 -1.222166840764651e-02 -1.834359799812768e-01 -4.984804140725629e-02 8.215629192299725e-02 -6.025332674246394e-01
            1.189008588611477e-01 -1.220141219981321e-02 1.089150715480938e-01 -5.212228004716653e-03 8.227828092115536e-02 -6.024868583097014e-01 -1.833810598674962e-01 -4.972846656966303e-02
            -1.833859648118203e-01 -4.981384389981527e-02 8.222900882114476e-02 -6.025756142496207e-01 1.113327911017685e-01 -1.894491597921922e-02 1.136308542430504e-01 -4.751869662596303e-03
            8.218618646006882e-02 -6.025633486780337e-01 -1.835178334345503e-01 -4.981643991999968e-02 1.136765218896220e-01 -4.637320269895128e-03 1.112525081948536e-01 -1.898191455971141e-02
401665554.6288573742 1.040921159629086e-01 -1.414617008590898e-02 1.132629930177739e-01 -2.235303104455500e-02 -1.894908554948150e-01 -2.154190613355390e-02 -1.185310652998397e-02 -6.082848874005681e-01
            1.132162203716660e-01 -2.250487621046324e-02 1.041286856601303e-01 -1.417745017861581e-02 -1.183598080033502e-02 -6.083160592319898e-01 -1.895506124855341e-01 -2.156910642197767e-02
            -1.895712609734689e-01 -2.151030197769676e-02 -1.185105264330570e-02 -6.082960258184270e-01 1.048774151996130e-01 -2.881001597585654e-02 1.090527426579193e-01 -1.439413115621012e-02
            -1.184640975703052e-02 -6.082918644750094e-01 -1.894726073724358e-01 -2.146090900978738e-02 1.089694458783973e-01 -1.442645368616499e-02 1.049039071864950e-01 -2.870093414229345e-02
402165137.6146789193 9.650719469670081e-02 -2.117745978146733e-02 1.047913719888678e-01 -3.058520896758089e-02 -1.916810245096837e-01 7.278801725955671e-03 -1.061559863799581e-01 -5.994787752452765e-01
            1.047714554554369e-01 -3.058184701336207e-02 9.658799729604585e-02 -2.114987450524903e-02 -1.061311506157187e-01 -5.995344805662470e-01 -1.916540981691740e-01 7.352843457372118e-03
            -1.916491587057382e-01 7.380190116213463e-03 -1.060070176062441e-01 -5.995407222971515e-01 9.575393260738913e-02 -3.624936458791449e-02 1.015405911986538e-01 -2.213486897539235e-02
            -1.061103551784680e-01 -5.995731355775250e-01 -1.916127388152084e-01 7.316029273798389e-03 1.016515192494465e-01 -2.214987807519534e-02 9.577167961532485e-02 -3.622607278993759e-02
402664720.6005004048 8.711054549840307e-02 -2.539720215119673e-02 9.408375388657332e-02 -3.576663593039866e-02 -1.897746648315474e-01 3.627880806366671e-02 -1.982318644117305e-01 -5.763286743032661e-01
            9.407617208298905e-02 -3.576931842455967e-02 8.701310403362668e-02 -2.548626537484331e-02 -1.982949869117534e-01 -5.762199813563442e-01 -1.897874963036651e-01 3.624695823723386e-02
            -1.897794529743850e-01 3.631440815276921e-02 -1.983101893813160e-01 -5.762017320480677e-01 8.452645145924899e-02 -4.053006976465989e-02 9.212679623762635e-02 -2.715666335945247e-02
            -1.983212929634975e-01 -5.762678140541262e-01 -1.897748393685015e-01 3.626523117753128e-02 9.204971251235577e-02 -2.707535628726816e-02 8.447985496586245e-02 -4.059193563105082e-02
403164303.5863219500 7.656177244991279e-02 -2.643416602940004e-02 8.219363614612157e-02 -3.732820833369168e-02 -1.837685737475777e-01 6.511104046532781e-02 -2.862278805295978e-01 -5.386614174318115e-01
            8.226185210818346e-02 -3.739213357610638e-02 7.662232285062388e-02 -2.649616456331580e-02 -2.861446058297307e-01 -5.386750861786165e-01 -1.838511632812034e-01 6.513691339025833e-02
            -1.838686913891836e-01 6.514854321436743e-02 -2.862298882925643e-01 -5.385831736181871e-01 7.233511500379859e-02 -4.125086486900714e-02 8.138853440073401e-02 -2.860522343655431e-02
            -2.862057899228896e-01 -5.386325260638209e-01 -1.837937562489077e-01 6.511988023476889e-02 8.137342369740212e-02 -2.866429590183286e-02 7.234822782838085e-02 -4.116736522896966e-02
403663886.5721434355 6.606303994024337e-02 -2.399970971267928e-02 7.030710895131924e-02 -3.522716559351010e-02 -1.737253242264145e-01 9.336363887310312e-02 -3.674480729913869e-01 -4.874352059516603e-01
            7.023942432755428e-02 -3.524757422833943e-02 6.610724223889294e-02 -2.402094349507469e-02 -3.673709739185389e-01 -4.874063826209218e-01 -1.737388119103776e-01 9.336895703714600e-02
            -1.738021168662204e-01 9.339050714669764e-02 -3.673704711485158e-01 -4.873997425668938e-01 6.047193457290298e-02 -3.796151471155681e-02 7.078636449462589e-02 -2.665837630423000e-02
            -3.673988739337461e-01 -4.873734622772011e-01 -1.737344588486374e-01 9.334214788104632e-02 7.075500967073584e-02 -2.663126853077753e-02 6.042027398575713e-02 -3.802940090054457e-02
404163469.5579649806 5.686012912417454e-02 -1.826590703249399e-02 5.951443374911852e-02 -2.948135493010889e-02 -1.592750248524961e-01 1.204369578280405e-01 -4.395942694463816e-01 -4.235302325460293e-01
            5.949735030933876e-02 -2.938649744713102e-02 5.684022932821946e-02 -1.819488808066373e-02 -4.396074433298712e-01 -4.235651562722358e-01 -1.593194438776306e-01 1.204672995461659e-01
            -1.592683521571408e-01 1.204341272559662e-01 -4.396068358159443e-01 -4.236211204997719e-01 4.998910834381401e-02 -3.111437337218007e-02 6.113926924483683e-02 -2.113746501018063e-02
            -4.396050807906789e-01 -4.235403393471911e-01 -1.593046085787032e-01 1.204233846627109e-01 6.118561703359354e-02 -2.115114062872856e-02 5.008320647666473e-02 -3.120326867826431e-02
404663052.5437865257 4.982042444367548e-02 -9.542619818861392e-03 5.112232636570489e-02 -2.046821180081159e-02 -1.403977980848993e-01 1.456586831300693e-01 -5.007470319653957e-01 -3.488116930665920e-01
            5.102308210609920e-02 -2.040753639598875e-02 4.982872954563016e-02 -9.608174291169553e-03 -5.007571623568233e-01 -3.487419652228102e-01 -1.404340704434270e-01 1.456604047446553e-01
            -1.404440124268110e-01 1.456661368864606e-01 -5.008212094532877e-01 -3.487710396940227e-01 4.205903026078867e-02 -2.124315887451627e-02 5.388014465265550e-02 -1.271969624690117e-02
            -5.008391933136442e-01 -3.487546126807898e-01 -1.404811781056299e-01 1.455977197077208e-01 5.388561518757477e-02 -1.269321608633547e-02 4.217770128786980e-02 -2.133526922579883e-02
405162635.5296080112 4.592843119727821e-02 9.854770758258788e-04 4.580029669961624e-02 -9.137148036696394e-03 -1.172356414491766e-01 1.680946640571113e-01 -5.490501516368472e-01 -2.649696664766636e-01
            4.583371802653379e-02 -9.123534680949636e-03 4.591157021356224e-02 1.020525643936727e-03 -5.489706421696124e-01 -2.650268514846075e-01 -1.172318152716995e-01 1.680907388774313e-01
            -1.172475287994292e-01 1.682066458943707e-01 -5.488993061572016e-01 -2.650425273581747e-01 3.775246168650603e-02 -9.435689180077761e-03 4.976212373679680e-02 -2.252771306961293e-03
            -5.489420612105466e-01 -2.650535262592638e-01 -1.172241820034065e-01 1.681547113386678e-01 4.985081414767251e-02 -2.286767315672515e-03 3.775342582866875e-02 -9.358990899180847e-03
405662218.5154295564 4.564458980748468e-02 1.242809380443043e-02 4.439511861648822e-02 3.234312191272600e-03 -8.995184384199557e-02 1.870100560783772e-01 -5.829089624253196e-01 -1.747434322109943e-01
            4.438686862649030e-02 3.241734405269576e-03 4.563558500214690e-02 1.239284751520186e-02 -5.828494913999460e-01 -1.747424331702466e-01 -8.996615895098607e-02 1.870002361284952e-01
            -8.997481034472146e-02 1.869364843053890e-01 -5.828478295535474e-01 -1.746245396431306e-01 3.738380509520092e-02 3.299751656262124e-03 4.924747649992676e-02 9.144536413493620e-03
            -5.828750030020776e-01 -1.746856029348285e-01 -8.996429298143159e-02 1.869734514330360e-01 4.933236928936242e-02 9.175753556649258e-03 3.732273106050150e-02 3.266157568348248e-03
406161801.5012510419 4.906634317903810e-02 2.344996043372235e-02 4.692360158226167e-02 1.551119836402036e-02 -5.930529929711575e-02 2.011823775006771e-01 -6.016345634415640e-01 -8.047159554565105e-02
            4.694286942397904e-02 1.543315838121486e-02 4.915204115816304e-02 2.332121417841054e-02 -6.016300805168765e-01 -8.046213202927049e-02 -5.939700517772185e-02 2.012440098214718e-01
            -5.931969192939957e-02 2.013509173955420e-01 -6.016829273009898e-01 -8.042188419653543e-02 4.105522912336540e-02 1.553655953820960e-02 5.250462305996877e-02 2.029909984646301e-02
            -6.016347950997541e-01 -8.050696161442755e-02 -5.933091518278825e-02 2.012188228477827e-01 5.252097442628140e-02 2.021760177000052e-02 4.094301155673907e-02 1.551683804621390e-02
406661384.4870725870 5.580577341414590e-02 3.279054195995268e-02 5.314080817561691e-02 2.626652237028999e-02 -2.604396246609676e-02 2.100263899729498e-01 -6.050096323588950e-01 1.493793699735848e-02
            5.318316593845341e-02 2.623132524654886e-02 5.586134240358091e-02 3.275680743283024e-02 -6.050014716215463e-01 1.495882318006139e-02 -2.610003079904762e-02 2.101579515642632e-01
            -2.608005048750387e-02 2.100605929321287e-01 -6.050120371185523e-01 1.494859598038118e-02 4.814115527732267e-02 2.596640082292109e-02 5.917302999880170e-02 2.970441730822524e-02
            -6.050328899386846e-01 1.498623606322311e-02 -2.613401567819511e-02 2.100411541873387e-01 5.926068842018094e-02 2.972726020053932e-02 4.820844871662588e-02 2.589335127100282e-02
407160967.4728940725 6.518974614990991e-02 3.956262493749711e-02 6.243216363088124e-02 3.451664946648865e-02 8.508712227874006e-03 2.131142887809445e-01 -5.932325652672867e-01 1.090491840094576e-01
            6.238339611352942e-02 3.448172928616217e-02 6.517735107681166e-02 3.955230274072472e-02 -5.932016903288651e-01 1.090128103388200e-01 8.456418030851067e-03 2.131132873627967e-01
            8.531887411186559e-03 2.130442969800440e-01 -5.933229727605477e-01 1.090053846872500e-01 5.826679519765585e-02 3.350799097447702e-02 6.863978609209039e-02 3.657474701993026e-02
            -5.932424200903479e-01 1.090645881016548e-01 8.561327741327380e-03 2.131402272797027e-01 6.858710754628088e-02 3.657539518485254e-02 5.822303885170417e-02 3.348885565076485e-02
407660550.4587156177 7.622060306168470e-02 4.298722088828909e-02 7.358511761692157e-02 3.948901046211396e-02 4.328015218458287e-02 2.099150793934385e-01 -5.671555705345348e-01 1.994967951205363e-01
            7.361705936905977e-02 3.948149455501102e-02 7.632465686966038e-02 4.305591700385689e-02 -5.670679088869161e-01 1.993946921674891e-01 4.329130545417397e-02 2.098903075063906e-01
            4.333089031920765e-02 2.098697052072021e-01 -5.670477987889411e-01 1.994243486540795e-01 7.006457395114903e-02 3.742880245515193e-02 7.978060170094115e-02 4.021123123570856e-02
            -5.671084802334243e-01 1.995790960245564e-01 4.330672011020514e-02 2.098601319914329e-01 7.984239704987196e-02 4.014360903749498e-02 7.006949077197128e-02 3.745918026996163e-02
408160133.4445371032 8.779717937540958e-02 4.290240906180601e-02 8.579764696767017e-02 4.080604315676138e-02 7.699010381724061e-02 2.007411666795816e-01 -5.276415152496904e-01 2.841115775365647e-01
            8.580533254963074e-02 4.077404094328714e-02 8.775271910695644e-02 4.295174165405302e-02 -5.275819593434879e-01 2.840801088266334e-01 7.703016256151540e-02 2.007662638348214e-01
            7.702061515530817e-02 2.007972005661184e-01 -5.276634995018769e-01 2.840774508263427e-01 8.238313961172841e-02 3.754690835489490e-02 9.156494830502447e-02 4.021636616251463e-02
            -5.277105416834253e-01 2.840377603787700e-01 7.700060697432372e-02 2.007422421093324e-01 9.158017277527335e-02 4.018770814374348e-02 8.244360251934607e-02 3.763975207352471e-02
408659716.4303586483 9.873209473579983e-02 3.938242573189243e-02 9.772243004032831e-02 3.838388701339809e-02 1.085332945284355e-01 1.860794902855337e-01 -4.759851998880886e-01 3.610787608619210e-01
            9.771536383180540e-02 3.838405749325543e-02 9.882088558782856e-02 3.935540453025708e-02 -4.759548523743924e-01 3.609872644606881e-01 1.084260828449739e-01 1.860364258620465e-01
            1.085243920446156e-01 1.861190303989521e-01 -4.760086036503609e-01 3.609754922468406e-01 9.405694732886380e-02 3.389783550270268e-02 1.027153129296264e-01 3.657626802688690e-02
            -4.760160615430225e-01 3.610557001422513e-01 1.084397787249724e-01 1.861015985926854e-01 1.027506177227924e-01 3.662874026373275e-02 9.410583803297387e-02 3.387437562796281e-02
409159299.4161801338 1.080298719435525e-01 3.254439764774966e-02 1.081048568829105e-01 3.254932168581266e-02 1.368329200627899e-01 1.665506769964239e-01 -4.136304865343320e-01 4.289616716723805e-01
            1.081331579695116e-01 3.258413621626333e-02 1.079976714510580e-01 3.255661099466815e-02 -4.137373405252457e-01 4.289410596071573e-01 1.368325736230661e-01 1.665101016001813e-01
            1.368106443113716e-01 1.664673577533286e-01 -4.137495594828463e-01 4.288662421733172e-01 1.039142204871272e-01 2.680979555911303e-02 1.123518907814570e-01 2.984273761857542e-02
            -4.136772218996871e-01 4.290144270020255e-01 1.367648948537393e-01 1.665626773060599e-01 1.124031001402159e-01 2.976620586425480e-02 1.039030758472201e-01 2.680477610079268e-02
409658882.4020016789 1.148525781820747e-01 2.341444051659975e-02 1.163506509710020e-01 2.399849302782761e-02 1.612948966962890e-01 1.428969509956129e-01 -3.422658322526592e-01 4.865403801148790e-01
            1.163185041177598e-01 2.391822614715191e-02 1.148263894631844e-01 2.326929060941351e-02 -3.422648869387047e-01 4.865457920604164e-01 1.613412914070396e-01 1.428734405972506e-01
            1.612522802530900e-01 1.428911757397998e-01 -3.422910029145491e-01 4.865214122807363e-01 1.111400525042290e-01 1.721866847213422e-02 1.194596372453054e-01 2.052470774343155e-02
            -3.422716146996750e-01 4.865099916793624e-01 1.612404755418770e-01 1.429468536303063e-01 1.195818561275473e-01 2.047742920686524e-02 1.111169360738855e-01 1.717675347621845e-02
410158465.3878231645 1.185259518358225e-01 1.256422929677325e-02 1.215442175068230e-01 1.338177286241141e-02 1.816215462375974e-01 1.159934787559545e-01 -2.631548187955245e-01 5.327190874724217e-01
            1.214578945673953e-01 1.344288348018856e-02 1.184428435845350e-01 1.254031628045779e-02 -2.632504888046640e-01 5.328093370921966e-01 1.815249760578236e-01 1.159767775339936e-01
            1.815915004354575e-01 1.160000015665584e-01 -2.632053874591555e-01 5.327311672905874e-01 1.148829906607250e-01 5.742416514582363e-03 1.235385239509315e-01 9.423842460067458e-03
            -2.631387744827134e-01 5.327091184000553e-01 1.815825566147235e-01 1.161243712256228e-01 1.236182182521945e-01 9.450159821593335e-03 1.149284293649559e-01 5.799572540288185e-03
410658048.3736447096 1.186910459837824e-01 1.084107920173097e-03 1.232575456660106e-01 1.877084989628837e-03 1.973052098172075e-01 8.676201416301894e-02 -1.781084160188071e-01 5.666073552970581e-01
            1.232731924076400e-01 1.896218694468309e-03 1.186693434528124e-01 1.138977482744479e-03 -1.780866664617937e-01 5.665625546104252e-01 1.973198754415898e-01 8.678883609082204e-02
            1.973989446323548e-01 8.679590440492854e-02 -1.781305197192679e-01 5.664740280767109e-01 1.150827993744556e-01 -6.157668856934595e-03 1.241204490007538e-01 -2.363609894235457e-03
            -1.781926285747751e-01 5.665098679927016e-01 1.973019606043777e-01 8.672729376456620e-02 1.242327365487038e-01 -2.289510177496525e-03 1.150597957599361e-01 -6.108825716108456e-03
411157631.3594662547 1.155345637360867e-01 -9.777037806324282e-03 1.215627802018586e-01 -9.570946625191685e-03 2.085042930474783e-01 5.575501499095475e-02 -8.870261247957170e-02 5.873003984063024e-01
            1.215576844294661e-01 -9.558505640174211e-03 1.155106307004974e-01 -9.814911512605514e-03 -8.879077442101517e-02 5.873715877544924e-01 2.085303938078183e-01 5.588426307123352e-02
            2.085405210750353e-01 5.578569662973838e-02 -8.874610087564365e-02 5.873350867223596e-01 1.114899093772150e-01 -1.761027865682129e-02 1.212503044462638e-01 -1.377720360691393e-02
            -8.875061932849616e-02 5.872812991313137e-01 2.084767225709840e-01 5.581386644788516e-02 1.212467262298818e-01 -1.369526134281299e-02 1.114319761422967e-01 -1.758014077274507e-02
411657214.3452877402 1.090950607742934e-01 -1.930855013014680e-02 1.165371149737170e-01 -2.000618544225326e-02 2.151813608338966e-01 2.375634319704178e-02 2.975739590679136e-03 5.943372613304985e-01
            1.164935425194260e-01 -1.994572943469616e-02 1.090633330662209e-01 -1.925930327586608e-02 2.948827267276494e-03 5.943731334249793e-01 2.152117242210548e-01 2.369926918908305e-02
            2.151989751948851e-01 2.377517958758504e-02 2.974746533952642e-03 5.943447487066775e-01 1.044704470426004e-01 -2.737960241675735e-02 1.150297782968640e-01 -2.383620278739649e-02
            2.979615325824950e-03 5.942486107510870e-01 2.152972629313008e-01 2.371910220684556e-02 1.150475900815423e-01 -2.384698419875389e-02 1.044731885608504e-01 -2.744591798908848e-02
412156797.3311092854 1.000866771266727e-01 -2.635549236907919e-02 1.085606962750370e-01 -2.820057758989863e-02 2.172471937117263e-01 -8.935321718044714e-03 9.517717216679640e-02 5.872946994584257e-01
            1.085325332977611e-01 -2.823353510981458e-02 1.000587517877463e-01 -2.631923415044310e-02 9.523159724574642e-02 5.872161273610472e-01 2.173141958298298e-01 -8.988353672906561e-03
            2.173320754428038e-01 -8.948646674167775e-03 9.517674694080661e-02 5.872466644351536e-01 9.475484214497076e-02 -3.477139204359884e-02 1.061627210756004e-01 -3.158205571235660e-02
            9.521046549024877e-02 5.872494267830191e-01 2.174037472570231e-01 -8.902671572815333e-03 1.061621211831237e-01 -3.154209681202278e-02 9.473606270202081e-02 -3.469814465055569e-02
412656380.3169307709 8.919703791963886e-02 -3.035190173277275e-02 9.836950809422475e-02 -3.363796275190525e-02 2.149391488996207e-01 -4.175908218791613e-02 1.857263279810613e-01 5.658639552415189e-01
            9.844969890227535e-02 -3.362263533841693e-02 8.915287599039069e-02 -3.035408579239748e-02 1.856403826296170e-01 5.658248919418158e-01 2.149705430772223e-01 -4.176485947354725e-02
            2.150438794282563e-01 -4.177878221293092e-02 1.857491344166660e-01 5.658636358350848e-01 8.314726397551198e-02 -3.869890089988910e-02 9.525424541822443e-02 -3.638673632104369e-02
            1.856902698315598e-01 5.658670990155632e-01 2.149520886382173e-01 -4.172338190283237e-02 9.524177785873726e-02 -3.644010323289690e-02 8.305673496483378e-02 -3.871263928565128e-02
413155963.3027523160 7.759967374010808e-02 -3.086082134292276e-02 8.713757925051474e-02 -3.571377218897412e-02 2.078800695067420e-01 -7.431316784820079e-02 2.721145243948677e-01 5.302577797486303e-01
            8.720487339414058e-02 -3.565168829456217e-02 7.760915099603045e-02 -3.078392016956536e-02 2.722116940264921e-01 5.302940595436747e-01 2.078863912084817e-01 -7.438866066679950e-02
            2.078931056136649e-01 -7.435640751694003e-02 2.721976265833156e-01 5.303525213998598e-01 7.064452943050104e-02 -3.885862939700996e-02 8.341022975084368e-02 -3.766969079704405e-02
            2.721865559180200e-01 5.303418273800009e-01 2.079066464695687e-01 -7.438589740052060e-02 8.338640514149126e-02 -3.759809927914673e-02 7.059572640093228e-02 -3.889079520752466e-02
413655546.2885738015 6.629063713629178e-02 -2.751799079496102e-02 7.589049261909298e-02 -3.398557374616803e-02 1.961661526456126e-01 -1.061546811507851e-01 3.523990231757129e-01 4.813610372405395e-01
            7.588284009895539e-02 -3.403488875034873e-02 6.629592377980514e-02 -2.749498988955120e-02 3.523860502483454e-01 4.812893677981246e-01 1.961607919509417e-01 -1.060529205669796e-01
            1.962372772309480e-01 -1.062176311162229e-01 3.523601801476221e-01 4.812970989078025e-01 5.864521072421764e-02 -3.511708297851175e-02 7.180334682483049e-02 -3.506902473936266e-02
            3.523754237316266e-01 4.813195028621523e-01 1.961993598566852e-01 -1.061039087342642e-01 7.175924272628831e-02 -3.502702476495635e-02 5.864500054422517e-02 -3.507346070035428e-02
414155129.2743953466 5.651358310420866e-02 -2.083612667672600e-02 6.586937454406867e-02 -2.889582588306712e-02 1.794998916986308e-01 -1.365450398382544e-01 4.238713218647355e-01 4.198248259413120e-01
            6.590057141110371e-02 -2.888177869281130e-02 5.649730964258342e-02 -2.081862447944087e-02 4.238799982023920e-01 4.198353954842021e-01 1.794856485132966e-01 -1.365327829157051e-01
            1.795431305703715e-01 -1.365170101572471e-01 4.239341853136438e-01 4.198454455921508e-01 4.821722138539131e-02 -2.754605642094599e-02 6.146233886180263e-02 -2.914658344528496e-02
            4.238644359176404e-01 4.198616285748950e-01 1.795416300267977e-01 -1.364117008997681e-01 6.144174401575775e-02 -2.912628218471785e-02 4.810716889821925e-02 -2.754421186623116e-02
414654712.2602168322 4.928824342411264e-02 -1.132455512052175e-02 5.787392434528787e-02 -2.081993803059279e-02 1.579373207860794e-01 -1.646220023264431e-01 4.846722187781166e-01 3.474276952435535e-01
            5.789943448274883e-02 -2.078438013594550e-02 4.923572706497526e-02 -1.135845966419124e-02 4.845893406375141e-01 3.474383054624175e-01 1.580360817181954e-01 -1.646983186952467e-01
            1.578999068436622e-01 -1.646911416531850e-01 4.846653218963159e-01 3.474380504635403e-01 4.054689260037232e-02 -1.708539015065559e-02 5.353687996196538e-02 -2.014387405917556e-02
            4.846393838558056e-01 3.474335431867747e-01 1.579578351016272e-01 -1.647047663127076e-01 5.359814663222031e-02 -2.018234676994699e-02 4.055762091720491e-02 -1.716142691052302e-02
415154295.2460383773 4.546967506458977e-02 6.725909544344259e-05 5.313778038938347e-02 -1.060406299050356e-02 1.315629844766410e-01 -1.896552948981987e-01 5.328689379506572e-01 2.660756587639375e-01
            5.312016035622103e-02 -1.060057222639897e-02 4.535064389898439e-02 5.682420565407023e-05 5.328764585620241e-01 2.661352943736204e-01 1.315708534638083e-01 -1.896662936971131e-01
            1.315899374181357e-01 -1.896969316857307e-01 5.328296533379727e-01 2.661276806958551e-01 3.659699578729306e-02 -4.674226291694679e-03 4.898605543984134e-02 -9.247384617334193e-03
            5.328845124725725e-01 2.661474869972391e-01 1.315634993482251e-01 -1.896078102750762e-01 4.896072188766207e-02 -9.199076832072810e-03 3.655591638476476e-02 -4.710314045031964e-03
415653878.2318598628 4.547395104114672e-02 1.221197900191594e-02 5.199000377771162e-02 6.153494939420287e-04 1.007914356136590e-01 -2.104578107867504e-01 5.670879064216694e-01 1.782925615963644e-01
            5.192030828894768e-02 5.415098971416226e-04 4.529798764147476e-02 1.212080462256989e-02 5.670802451593506e-01 1.782609553233327e-01 1.007696787497584e-01 -2.104127660478234e-01
            1.007603813165267e-01 -2.104167730772621e-01 5.670751568324767e-01 1.782613835082293e-01 3.672285250954849e-02 8.446040458710270e-03 4.811110687474390e-02 2.552364923697223e-03
            5.670016752005632e-01 1.783218711140417e-01 1.008409668441974e-01 -2.104626694056431e-01 4.809019124336551e-02 2.550499911365791e-03 3.668582939985537e-02 8.531876758623132e-03
416153461.2176814079 4.921759127561599e-02 2.360767660783924e-02 5.444387627133806e-02 1.137283583944388e-02 6.634159130614646e-02 -2.260706076245000e-01 5.864834224954188e-01 8.647128860300554e-02
            5.447137179288074e-02 1.132408287105282e-02 4.917622271826539e-02 2.359875502189459e-02 5.865336745673864e-01 8.656232549172883e-02 6.639279494777441e-02 -2.261139480706706e-01
            6.634789358981130e-02 -2.259989564592880e-01 5.864688877191211e-01 8.649879543843618e-02 4.091515894150951e-02 2.103704762273913e-02 5.105534562709139e-02 1.388985719035891e-02
            5.864808294119608e-01 8.649382736637878e-02 6.642210821228735e-02 -2.260404601274160e-01 5.103592425519092e-02 1.388939814184681e-02 4.096516832243904e-02 2.107248039938615e-02
416653044.2035029531 5.649057994430506e-02 3.331437875672331e-02 6.037198464505637e-02 2.071762865076068e-02 2.927741192388043e-02 -2.356625832370677e-01 5.909174162117801e-01 -6.665849355092554e-03
            6.033083353048593e-02 2.067319550434212e-02 5.651837308229979e-02 3.333852818813074e-02 5.909947896351608e-01 -6.610780667680796e-03 2.925483572364410e-02 -2.356504318254165e-01
            2.927733644183421e-02 -2.356859270332137e-01 5.909476081668702e-01 -6.638888202494557e-03 4.888031488163788e-02 3.155381860698760e-02 5.739141071834870e-02 2.349118249203432e-02
            5.908815787173285e-01 -6.622385108842158e-03 2.921331519744723e-02 -2.356417009495888e-01 5.746378009408067e-02 2.359718928700290e-02 4.890739708404429e-02 3.156549653346579e-02
417152627.1893244386 6.642261761587352e-02 4.019162315324108e-02 6.896328074308337e-02 2.757867682198928e-02 -9.317607214570636e-03 -2.388375593704384e-01 5.805779571502860e-01 -9.858987565645841e-02
            6.895453306870980e-02 2.752362456483690e-02 6.643964897637790e-02 4.025915126648208e-02 5.806275894537412e-01 -9.862223497010636e-02 -9.363886806290231e-03 -2.387617727451652e-01
            -9.326281386814433e-03 -2.388257314832306e-01 5.806699785454750e-01 -9.867018224238563e-02 5.963936949154251e-02 3.907955746698869e-02 6.648340478827962e-02 3.066392663891173e-02
            5.805851429470414e-01 -9.857857728610550e-02 -9.355400269054435e-03 -2.387611271021648e-01 6.650144048802310e-02 3.062274563336914e-02 5.970280665236974e-02 3.913321218520074e-02
417652210.1751459837 7.794785010967181e-02 4.359598503948042e-02 7.922305573510686e-02 3.123939024685752e-02 -4.804363756660687e-02 -2.352224047146978e-01 5.562512847146768e-01 -1.871850027065910e-01
            7.916244363374511e-02 3.117492002157289e-02 7.811159780673453e-02 4.363577509911071e-02 5.562452066337541e-01 -1.871764100626666e-01 -4.803849307272175e-02 -2.351446498630978e-01
            -4.804994201173991e-02 -2.351568270891381e-01 5.562990586448318e-01 -1.871964716912669e-01 7.223572988399159e-02 4.284421721280977e-02 7.710964541557985e-02 3.435874981962538e-02
            5.562591067345771e-01 -1.871674328035854e-01 -4.804667622519689e-02 -2.350669863297545e-01 7.715624952437077e-02 3.435070134297591e-02 7.213939108899002e-02 4.294066353666249e-02
418151793.1609674692 8.999480160306263e-02 4.346079261746916e-02 9.001842346030892e-02 3.137161793503288e-02 -8.545290119783892e-02 -2.249356792693304e-01 5.188309603769623e-01 -2.702249334850321e-01
            9.001915832198325e-02 3.131829867237150e-02 8.997762062885679e-02 4.335695080529756e-02 5.187886153630604e-01 -2.702137496022903e-01 -8.551189893860225e-02 -2.248884913020595e-01
            -8.552834213411246e-02 -2.249134628718627e-01 5.188028098411888e-01 -2.702100959943112e-01 8.512888289848278e-02 4.271416580151168e-02 8.827490849046934e-02 3.457649606909186e-02
            5.187851345402752e-01 -2.701858837476699e-01 -8.554929017068967e-02 -2.249339297240821e-01 8.824305230308935e-02 3.457064998300027e-02 8.516624205770511e-02 4.274139687151238e-02
418651376.1467890143 1.010817305889778e-01 3.950485783792189e-02 1.002842792906400e-01 2.825755200853857e-02 -1.205146646051233e-01 -2.086613392965805e-01 4.694326821770655e-01 -3.459999594052334e-01
            1.003236277798446e-01 2.813522115949586e-02 1.011165869331853e-01 3.954436357360028e-02 4.694461874483795e-01 -3.460510283085929e-01 -1.204942255222270e-01 -2.086821644549579e-01
            -1.204960891895797e-01 -2.087283030992278e-01 4.694838130819101e-01 -3.460881690387109e-01 9.734362464060675e-02 3.861968832092331e-02 9.882448138513038e-02 3.119841123714556e-02
            4.694663248852761e-01 -3.460647985498663e-01 -1.204618333160584e-01 -2.086922843419607e-01 9.885558777775530e-02 3.114802944299674e-02 9.735479207051261e-02 3.870393263734374e-02
419150959.1326104999 1.105792907938708e-01 3.242671859152432e-02 1.090249991417615e-01 2.184357906611149e-02 -1.521516518710301e-01 -1.870414834575986e-01 4.096337531499799e-01 -4.131519066118797e-01
            1.090908128529402e-01 2.180476522020037e-02 1.105722781571471e-01 3.236066840750817e-02 4.096306409408420e-01 -4.131437941742289e-01 -1.521789989766709e-01 -1.870068892991788e-01
            -1.521307382094817e-01 -1.870107653473655e-01 4.096352700365675e-01 -4.131932250135186e-01 1.075702761675383e-01 3.113368987100155e-02 1.077992001800317e-01 2.480544098844275e-02
            4.095966692485565e-01 -4.130940673360733e-01 -1.520563949629511e-01 -1.869366650461871e-01 1.077964805384222e-01 2.479273681919953e-02 1.075955652610171e-01 3.118437601852944e-02
419650542.1184320450 1.173450508441827e-01 2.288995913744318e-02 1.154474681106137e-01 1.306822071438022e-02 -1.795184988427164e-01 -1.608207422068746e-01 3.407072274335273e-01 -4.702793113986087e-01
            1.155093557854898e-01 1.309166302287152e-02 1.172958187370795e-01 2.284838936741350e-02 3.406429115015963e-01 -4.703158380231909e-01 -1.796679893852196e-01 -1.608585417572957e-01
            -1.795784082307281e-01 -1.607765177038687e-01 3.406879221215542e-01 -4.703320428396512e-01 1.150353170018492e-01 2.101251345067528e-02 1.142065657101955e-01 1.607148287324371e-02
            3.407159363068770e-01 -4.703409793584933e-01 -1.796367605733082e-01 -1.608032496604012e-01 1.141635522556068e-01 1.607334127709414e-02 1.150414214263098e-01 2.098636586596337e-02
420150125.1042535305 1.208837118176594e-01 1.180750335048831e-02 1.188259424874907e-01 2.755939747987062e-03 -2.023800974068726e-01 -1.309869960666052e-01 2.640232970366871e-01 -5.164773855107873e-01
            1.187807786395233e-01 2.781705268113431e-03 1.209749809664246e-01 1.179089408224907e-02 2.640915498966153e-01 -5.164286583819906e-01 -2.023481960633684e-01 -1.309080658450313e-01
            -2.023473051542833e-01 -1.309284906858429e-01 2.640605124005691e-01 -5.164316162648601e-01 1.191154621590154e-01 9.201051796295739e-03 1.174776561022834e-01 5.694245871763194e-03
            2.640640589872068e-01 -5.164954953240194e-01 -2.024188837037168e-01 -1.310238351570533e-01 1.175731566532252e-01 5.710918510885996e-03 1.191950601812147e-01 9.191679268522964e-03
420649708.0900750756 1.210364978825097e-01 2.582049147496464e-04 1.188876826727327e-01 -8.123677255695901e-03 -2.202122985755984e-01 -9.833287786978986e-02 1.814387408425049e-01 -5.507011960518378e-01
            1.188217647506041e-01 -8.089532150889280e-03 1.210321784963778e-01 2.173174831493986e-04 1.814522526655513e-01 -5.507571490160224e-01 -2.202424785965428e-01 -9.834493110966298e-02
            -2.202282199247294e-01 -9.829000911362118e-02 1.814479941074245e-01 -5.506527840005215e-01 1.194374321638547e-01 -3.265537538725048e-03 1.175996499945180e-01 -5.079593896390296e-03
            1.815244645292535e-01 -5.506780947946046e-01 -2.201038637859675e-01 -9.843753183200360e-02 1.174800645448008e-01 -5.110733594084127e-03 1.192837193735236e-01 -3.267207523422560e-03
421149291.0758965611 1.176947132132340e-01 -1.083859840042594e-02 1.155621245919078e-01 -1.860424173987039e-02 -2.330147453293964e-01 -6.372253884382421e-02 9.443767377379017e-02 -5.722125275779768e-01
            1.154819341281788e-01 -1.858166279250177e-02 1.176671469972118e-01 -1.076975324594532e-02 9.440718192174018e-02 -5.721792557144740e-01 -2.328808835259053e-01 -6.377594913654916e-02
            -2.329869207970710e-01 -6.373487477588780e-02 9.446778232726012e-02 -5.721719591744436e-01 1.160188228364929e-01 -1.518688063588341e-02 1.142756296981139e-01 -1.545636952358994e-02
            9.442905091360800e-02 -5.721949182908689e-01 -2.329823149406325e-01 -6.372269445690308e-02 1.142290812240518e-01 -1.545579735591042e-02 1.159893412753350e-01 -1.513046176195993e-02
421648874.0617181063 1.110427249155144e-01 -2.021909553341960e-02 1.091142771727370e-01 -2.763283162085862e-02 -2.406078479448067e-01 -2.776865738691906e-02 4.786847957944902e-03 -5.802121271290196e-01
            1.091041076912757e-01 -2.769282256956444e-02 1.110912943335578e-01 -2.028770577299636e-02 4.818783996922840e-03 -5.803027156166181e-01 -2.406387062402651e-01 -2.775538451682942e-02
            -2.406510403330861e-01 -2.778849696667117e-02 4.848681284492248e-03 -5.802809278987094e-01 1.090934754552614e-01 -2.548866565785331e-02 1.078596838246124e-01 -2.428010128412088e-02
            4.858394635894795e-03 -5.803167808982549e-01 -2.405820787481859e-01 -2.786067106562672e-02 1.079245312953764e-01 -2.437673332799874e-02 1.090671998957949e-01 -2.546650631062661e-02
422148457.0475396514 1.019612503325701e-01 -2.727689133384960e-02 1.002150184985972e-01 -3.441633890348631e-02 -2.432282997055772e-01 8.902590193418169e-03 -8.544669284237047e-02 -5.745432858892584e-01
            1.002612373402709e-01 -3.443918907830666e-02 1.019668027244859e-01 -2.729456265160345e-02 -8.537338340054185e-02 -5.744726917723254e-01 -2.432195069847873e-01 8.846329906307151e-03
            -2.431800113013449e-01 8.866906154113847e-03 -8.536984860582324e-02 -5.745541698504941e-01 9.933447474317257e-02 -3.321830756537337e-02 9.907389672750475e-02 -3.087693173477958e-02
            -8.546077383646301e-02 -5.744730615124490e-01 -2.431857841605982e-01 8.841854306496760e-03 9.897789535653669e-02 -3.087303515015115e-02 9.931349805739786e-02 -3.320425838898378e-02
422648040.0333611369 9.109386271983470e-02 -3.107471238293143e-02 8.957183588621030e-02 -3.820912203339395e-02 -2.404942949694210e-01 4.573828126106330e-02 -1.741212619330025e-01 -5.546920521710575e-01
            8.951032719730709e-02 -3.821218218200476e-02 9.109429091662535e-02 -3.111920660192736e-02 -1.740696393826430e-01 -5.546788302766666e-01 -2.405159518584245e-01 4.575219744255701e-02
            -2.405349346001710e-01 4.576047975086524e-02 -1.741261770188585e-01 -5.546401832260869e-01 8.765514629831722e-02 -3.761097996900887e-02 8.849169508988190e-02 -3.431454423180895e-02
            -1.741054765410708e-01 -5.546686810509462e-01 -2.405241447284019e-01 4.590593449814863e-02 8.842393628638751e-02 -3.421631262448292e-02 8.770332808856904e-02 -3.759548958269773e-02
423147623.0191826820 7.950492543452477e-02 -3.138982453247793e-02 7.810118677050867e-02 -3.852546044833902e-02 -2.326238555423455e-01 8.236928015060807e-02 -2.590184035879473e-01 -5.209141955543664e-01
            7.805400123913549e-02 -3.856601280894760e-02 7.948548610957935e-02 -3.140888524784332e-02 -2.590309949933982e-01 -5.209349256418375e-01 -2.326288051239296e-01 8.240941587873460e-02
            -2.326395153855718e-01 8.229835280071410e-02 -2.591505781813770e-01 -5.209174679292756e-01 7.518331738534036e-02 -3.817232619427953e-02 7.740150679688754e-02 -3.429471489880732e-02
            -2.590525785278436e-01 -5.209602912836633e-01 -2.326148605246134e-01 8.237243218810589e-02 7.727516094759215e-02 -3.431135723200411e-02 7.522544105842563e-02 -3.810441630923301e-02
423647206.0050041676 6.841121075046724e-02 -2.802231373330994e-02 6.700789720116397e-02 -3.527663223026564e-02 -2.192600515992709e-01 1.180311655159635e-01 -3.379422146372280e-01 -4.739191646333560e-01
            6.694040575770785e-02 -3.520530473089105e-02 6.839424980328816e-02 -2.796680761112484e-02 -3.378718012190479e-01 -4.739320686727835e-01 -2.193100051180072e-01 1.180763175875234e-01
            -2.192718959392710e-01 1.179519585041826e-01 -3.378647416835336e-01 -4.739973391882820e-01 6.310978909487221e-02 -3.468736216744000e-02 6.650069556895637e-02 -3.079932115992015e-02
            -3.379483056130488e-01 -4.739048407541923e-01 -2.193116329080051e-01 1.179472755856685e-01 6.662014816217886e-02 -3.079892646116855e-02 6.312898035801218e-02 -3.471431566198973e-02
424146788.9908257127 5.897158335944288e-02 -2.120891921299983e-02 5.741327387672920e-02 -2.863374661307681e-02 -2.004236183849974e-01 1.518431484689227e-01 -4.084322863371195e-01 -4.146452698920599e-01
            5.739281515508656e-02 -2.861551947334626e-02 5.892079303552723e-02 -2.118744237206282e-02 -4.084338315039559e-01 -4.146279307950493e-01 -2.005065547863426e-01 1.518326428135350e-01
            -2.004740303256990e-01 1.518760553308924e-01 -4.083949448449614e-01 -4.147247691110764e-01 5.280861839905322e-02 -2.772810550704336e-02 5.746162863092342e-02 -2.391450343584611e-02
            -4.084624362964850e-01 -4.146949228586054e-01 -2.004658260338047e-01 1.518787525678435e-01 5.742723378173457e-02 -2.392690814983230e-02 5.277425287715363e-02 -2.774521371462869e-02
424646371.9766471982 5.224124234032675e-02 -1.176662030087519e-02 5.032521776257375e-02 -1.930368026999760e-02 -1.761023454539241e-01 1.831115489422789e-01 -4.683730460560006e-01 -3.447013397677991e-01
            5.035926531492035e-02 -1.927394858223528e-02 5.212783604488842e-02 -1.172224675077959e-02 -4.684468394302552e-01 -3.446425668972237e-01 -1.760679306197538e-01 1.831341366913796e-01
            -1.761818684629076e-01 1.831487039673125e-01 -4.683862035877585e-01 -3.447252656924735e-01 4.500782782901590e-02 -1.781296825096156e-02 5.084910372821780e-02 -1.440794731004220e-02
            -4.684112002883333e-01 -3.446231903788634e-01 -1.760880076178538e-01 1.830723547386966e-01 5.081344697488354e-02 -1.443327062533311e-02 4.502027796317063e-02 -1.783015379734790e-02
425145954.9624687433 4.877633460264730e-02 -5.134752457390852e-04 4.650552760371715e-02 -8.214009340810889e-03 -1.465887080759536e-01 2.106645795313267e-01 -5.161582497170100e-01 -2.658402613060694e-01
            4.656581584664136e-02 -8.239849863846772e-03 4.885258851845823e-02 -5.237800358025345e-04 -5.162040421249728e-01 -2.658465604565606e-01 -1.465085438161462e-01 2.107082889038863e-01
            -1.465361010302596e-01 2.107333470123334e-01 -5.161366171169842e-01 -2.657606697411204e-01 4.094266349036249e-02 -5.874870055643807e-03 4.764592990025460e-02 -3.354362673913823e-03
            -5.161469395237535e-01 -2.658154662224980e-01 -1.464898755927580e-01 2.106738587226435e-01 4.762486856671701e-02 -3.345831555622370e-03 4.091462714444211e-02 -5.898405919066384e-03
425645537.9482902288 4.920936137415076e-02 1.108486664355939e-02 4.649312803514507e-02 3.425477547476109e-03 -1.121679584289430e-01 2.334403527686756e-01 -5.504725156429915e-01 -1.806275963337313e-01
            4.651579948204074e-02 3.412276625323507e-03 4.924126064892156e-02 1.111111878312744e-02 -5.503196833961514e-01 -1.805812549014605e-01 -1.122336396956389e-01 2.334089247947789e-01
            -1.122841597994266e-01 2.334351586760914e-01 -5.503587854733362e-01 -1.805727199740524e-01 4.076273683013378e-02 6.606341084299623e-03 4.814999124301778e-02 8.283657041060493e-03
            -5.503730978796787e-01 -1.805374360764369e-01 -1.121656900208228e-01 2.333489388428090e-01 4.810494996603769e-02 8.315287731670158e-03 4.067695252925332e-02 6.737110023714287e-03
426145120.9341117740 5.343795461119172e-02 2.203393526725199e-02 5.004612770576432e-02 1.445476195052540e-02 -7.401017766352852e-02 2.504633606054515e-01 -5.703092509323355e-01 -9.136490133431048e-02
            5.002869701577851e-02 1.449756841881577e-02 5.340560928919698e-02 2.210202458331037e-02 -5.703094937249810e-01 -9.144982777122149e-02 -7.398572102838979e-02 2.504773260599152e-01
            -7.408464346092843e-02 2.504198468233182e-01 -5.703577823347578e-01 -9.134674489125831e-02 4.470797275687854e-02 1.862805362378491e-02 5.225276418729209e-02 1.914548717683910e-02
            -5.702558246943873e-01 -9.139103616797262e-02 -7.395668670460190e-02 2.504033539045549e-01 5.228941346272649e-02 1.911280248271754e-02 4.460415477123020e-02 1.850721060837930e-02
426644703.9199332595 6.084101891437250e-02 3.103178819496685e-02 5.684232628492969e-02 2.374742756322567e-02 -3.305452931573238e-02 2.607859295771178e-01 -5.756079196539907e-01 -7.799467053019682e-04
            5.690109652549302e-02 2.374489492719047e-02 6.081528232188257e-02 3.106459748510007e-02 -5.756787575624257e-01 -7.717398823142954e-04 -3.294332674563868e-02 2.607678428880285e-01
            -3.296317081118776e-02 2.608033201028035e-01 -5.756399307178747e-01 -8.094302205682303e-04 5.194824111534777e-02 2.855424071377017e-02 5.969252203239552e-02 2.804576178996792e-02
            -5.756862569962051e-01 -7.532742064205876e-04 -3.295886276925074e-02 2.607711703544480e-01 5.974439636768201e-02 2.806548825677148e-02 5.192329999306049e-02 2.855717593340110e-02
427144286.9057548046 7.074855182610126e-02 3.701347130605447e-02 6.624032421544399e-02 3.023622829782038e-02 9.514970711334718e-03 2.640010478314938e-01 -5.666267489616346e-01 8.889471961864966e-02
            6.623461996989449e-02 3.025752307661106e-02 7.069060931767365e-02 3.705870183441670e-02 -5.666175257101065e-01 8.881415255245274e-02 9.464346158670906e-03 2.639238249430613e-01
            9.488790007817728e-03 2.639312651072336e-01 -5.666618174537622e-01 8.881150986782811e-02 6.198751391926437e-02 3.564072921707125e-02 6.945771487796128e-02 3.410004615836177e-02
            -5.666338847683504e-01 8.883168353507888e-02 9.542875733191540e-03 2.639807250061192e-01 6.945427615956055e-02 3.415300668557217e-02 6.193852621410231e-02 3.555129905694395e-02
427643869.8915763497 8.199822441187692e-02 3.968177392423153e-02 7.699183410547909e-02 3.353142171274324e-02 5.201850674586841e-02 2.599138037220577e-01 -5.438997229881528e-01 1.751116932379288e-01
            7.701905904317857e-02 3.346161992425428e-02 8.197133145205407e-02 3.955213003142380e-02 -5.439423868872243e-01 1.752416257779087e-01 5.205224375660855e-02 2.598935217237870e-01
            5.206900367562909e-02 2.599549155403562e-01 -5.440404271503964e-01 1.751408850447917e-01 7.356883817787137e-02 3.917524948028461e-02 8.057050057171210e-02 3.678790658458834e-02
            -5.439567746501460e-01 1.752168572477109e-01 5.196817142881254e-02 2.599741340322143e-01 8.062852081311403e-02 3.680914494594719e-02 7.354607146329020e-02 3.916979053632923e-02
428143452.8773978353 9.354413384491483e-02 3.854664800550170e-02 8.810958170610440e-02 3.315444708652986e-02 9.319617682479138e-02 2.487564363922341e-01 -5.085669426790691e-01 2.564045100018327e-01
            8.809544546070039e-02 3.315408882466959e-02 9.342687706459295e-02 3.860137178089442e-02 -5.085884212583447e-01 2.564332787488772e-01 9.315897398741488e-02 2.487331278239311e-01
            9.316424784458312e-02 2.487338581136106e-01 -5.086296419121409e-01 2.565176348170851e-01 8.552599112276385e-02 3.897393673468554e-02 9.182669288590006e-02 3.592098867728871e-02
            -5.085896543521240e-01 2.564324085363622e-01 9.320316384599264e-02 2.487251544620432e-01 9.190125096056460e-02 3.589155520884140e-02 8.552439256690575e-02 3.893404200372945e-02
428643035.8632193804 1.039750830353039e-01 3.393200442633384e-02 9.845345813523294e-02 2.939313893862252e-02 1.317114128255107e-01 2.309602878227178e-01 -4.616399099411569e-01 3.307715579027424e-01
            9.846147821303958e-02 2.941500675001375e-02 1.039839963834746e-01 3.399137902766688e-02 -4.616101138824826e-01 3.308231311623075e-01 1.316902988855219e-01 2.310403777113287e-01
            1.316652527118953e-01 2.309493150701331e-01 -4.616155972012563e-01 3.308894744535972e-01 9.671051931611882e-02 3.498295292194836e-02 1.023603412792759e-01 3.157473356036179e-02
            -4.616219639974581e-01 3.308533895613493e-01 1.316357293401668e-01 2.309614547093405e-01 1.023736451715230e-01 3.155483119846363e-02 9.673209439885502e-02 3.499889835272920e-02
429142618.8490408659 1.125702960463791e-01 2.639289443785215e-02 1.070079564302879e-01 2.267877690188578e-02 1.664907231004949e-01 2.072979048722409e-01 -4.042448647759143e-01 3.969557559282098e-01
            1.070659171890125e-01 2.278846475600085e-02 1.125157653019156e-01 2.648469156063644e-02 -4.043211377692144e-01 3.969457143106423e-01 1.665671703587197e-01 2.072748778666991e-01
            1.664482523582079e-01 2.074153179727773e-01 -4.042840174555086e-01 3.969560208376210e-01 1.060999365233530e-01 2.797984286042969e-02 1.107964097744243e-01 2.423321484369538e-02
            -4.042174134155279e-01 3.968717613393226e-01 1.664830562477211e-01 2.073758976860538e-01 1.107231807642449e-01 2.431326114845449e-02 1.060883042919494e-01 2.795471503212069e-02
429642201.8348624110 1.183893714599542e-01 1.658088514943707e-02 1.129380756031851e-01 1.369513716037109e-02 1.968148031103090e-01 1.787847594382306e-01 -3.378850407238743e-01 4.536233214161299e-01
            1.129588051728563e-01 1.370583216099654e-02 1.182984405710823e-01 1.665060539365288e-02 -3.379458476085155e-01 4.535485067339998e-01 1.968244071148485e-01 1.787246138017627e-01
            1.968414372935759e-01 1.788032199346802e-01 -3.378885768274796e-01 4.535313605623459e-01 1.127048984583856e-01 1.844493381590773e-02 1.164895760329823e-01 1.481477947778985e-02
            -3.378807971015690e-01 4.536679092017529e-01 1.968554104412132e-01 1.787895108201692e-01 1.165506405738128e-01 1.479130801030443e-02 1.126133389651257e-01 1.840455408559462e-02
430141784.8206838965 1.209598848162593e-01 5.476913528192746e-03 1.159035090911925e-01 3.415901626534274e-03 2.221669037696294e-01 1.462152298929908e-01 -2.638248434343843e-01 4.996482784570218e-01
            1.158331765801285e-01 3.531821676801226e-03 1.208987687178811e-01 5.496127611202510e-03 -2.639000758520234e-01 4.995840724638238e-01 2.222083174182795e-01 1.462218708241503e-01
            2.221442234435388e-01 1.462848836416825e-01 -2.638864843620388e-01 4.995732561580886e-01 1.159272830385776e-01 7.357035333561192e-03 1.191899079488595e-01 4.064524926029701e-03
            -2.639195196311156e-01 4.996787766672234e-01 2.221196359391065e-01 1.461971843769077e-01 1.191870559392453e-01 4.104889829662008e-03 1.159653381811412e-01 7.362452100097366e-03
430641367.8065054417 1.199645530983817e-01 -5.833938633887712e-03 1.154659962866173e-01 -7.210507800751462e-03 2.421877426526023e-01 1.104301147558197e-01 -1.837874174161297e-01 5.340809725987306e-01
            1.154393213144913e-01 -7.243665385370882e-03 1.199726050780980e-01 -5.924913786275241e-03 -1.838411746915298e-01 5.341138258856037e-01 2.421394012144900e-01 1.104623887937713e-01
            2.421553751007302e-01 1.104378994142864e-01 -1.837647690646984e-01 5.340209545212041e-01 1.158353864131832e-01 -4.061733388175194e-03 1.185084636776327e-01 -6.917302674954668e-03
            -1.837881214910744e-01 5.340396990774888e-01 2.421042338017201e-01 1.103537812527244e-01 1.183957619247034e-01 -6.924885038068107e-03 1.158366812597868e-01 -4.072426517323430e-03
431140950.7923269272 1.156490871868376e-01 -1.647928678341107e-02 1.117762250854095e-01 -1.731915699675658e-02 2.566498433988472e-01 7.235658703216757e-02 -9.915105918621350e-02 5.561571598528117e-01
            1.117032184286101e-01 -1.727516159770584e-02 1.155642306854168e-01 -1.646169570008659e-02 -9.916753693706430e-02 5.561370539046505e-01 2.566203397772790e-01 7.236026599104944e-02
            2.566289615909689e-01 7.238319698383806e-02 -9.916690057239902e-02 5.562092451492796e-01 1.120038979726092e-01 -1.487501017765800e-02 1.143277412167164e-01 -1.716547570605534e-02
            -9.918233574057432e-02 5.561428848961296e-01 2.566567174492145e-01 7.237252635954604e-02 1.143334918465656e-01 -1.725541245284861e-02 1.120348502462988e-01 -1.484022989941679e-02
431640533.7781484723 1.082067111484626e-01 -2.530556671303692e-02 1.050491342996700e-01 -2.565473401013655e-02 2.654263281734549e-01 3.273340093022803e-02 -1.186616497938426e-02 5.651346826988188e-01
            1.050861202914914e-01 -2.566343916598623e-02 1.081812273962892e-01 -2.521337480189356e-02 -1.182489335166647e-02 5.651353067761908e-01 2.655703511286042e-01 3.263716632191013e-02
            2.654643719036943e-01 3.264687582066238e-02 -1.182316141113330e-02 5.650880229862343e-01 1.051210831535817e-01 -2.387884036068778e-02 1.072583976591986e-01 -2.567506627764350e-02
            -1.183828752094842e-02 5.650901899374626e-01 2.654446647405089e-01 3.266671582343101e-02 1.072289940301007e-01 -2.569410915678754e-02 1.051336566201100e-01 -2.390944378075576e-02
432140116.7639699578 9.838335785443565e-02 -3.137923335790812e-02 9.601425929619539e-02 -3.172748777939328e-02 2.685698321266319e-01 -7.946887825601328e-03 7.629116438204900e-02 5.605061781388287e-01
            9.599161175115296e-02 -3.166006020124357e-02 9.841363310820680e-02 -3.134822173308305e-02 7.628613511103555e-02 5.604749265749038e-01 2.685390269864045e-01 -7.981974481882799e-03
            2.685322820007751e-01 -8.014404909657049e-03 7.628981523313726e-02 5.605681555323053e-01 9.568358785555604e-02 -3.048388814933642e-02 9.783066887063784e-02 -3.172643777727424e-02
            7.627197149876158e-02 5.605299094523613e-01 2.685708591873491e-01 -7.935716361129068e-03 9.774306559916830e-02 -3.166557736731008e-02 9.563504555759972e-02 -3.043509347732008e-02
432639699.7497915030 8.710105652288579e-02 -3.422171012498028e-02 8.542492742344540e-02 -3.460102472410551e-02 2.658351631623938e-01 -4.899329325380066e-02 1.630697628492541e-01 5.420809841497746e-01
            8.539675329071074e-02 -3.459408759592442e-02 8.705113172132951e-02 -3.420488391489419e-02 1.629975633405070e-01 5.420955872366480e-01 2.658479473778330e-01 -4.891804551742926e-02
            2.658366310636215e-01 -4.905501450936699e-02 1.629781759102045e-01 5.421455340285737e-01 8.468027591759325e-02 -3.370141899324847e-02 8.693566494751667e-02 -3.442150618148537e-02
            1.630898999529769e-01 5.421450199591415e-01 2.658497179983861e-01 -4.897565022252962e-02 8.695364914267005e-02 -3.440183455116676e-02 8.455223473411522e-02 -3.371798579153362e-02
433139282.7356130481 7.533119297481022e-02 -3.340460413086464e-02 7.436027971820641e-02 -3.403495122838712e-02 2.571195257583243e-01 -8.958064896577844e-02 2.462401367725357e-01 5.100440694306075e-01
            7.440786860184759e-02 -3.391331976193023e-02 7.536516723790107e-02 -3.340440871613286e-02 2.462297038625931e-01 5.100929149842820e-01 2.571320812805431e-01 -8.956975601872606e-02
            2.571461429978324e-01 -8.958551255707943e-02 2.462720168285442e-01 5.100743504881740e-01 7.297331833861069e-02 -3.330345513567851e-02 7.564106762288331e-02 -3.354651868785652e-02
            2.463231056880493e-01 5.099951738303210e-01 2.571566688010655e-01 -8.952512207057828e-02 7.561948834457496e-02 -3.360072658706329e-02 7.296864422415467e-02 -3.328313686326882e-02
433638865.7214345336 6.444520500402724e-02 -2.886380553311809e-02 6.397893142696592e-02 -2.983325431921599e-02 2.423069766871714e-01 -1.290766740233538e-01 3.234638597915512e-01 4.649825913956855e-01
            6.396585267037293e-02 -2.974789077653243e-02 6.445963495025514e-02 -2.887663501376085e-02 3.235078822356815e-01 4.649410377880311e-01 2.423847735415277e-01 -1.290837529312175e-01
            2.423820485924280e-01 -1.290855791049616e-01 3.235414801780135e-01 4.648638606621029e-01 6.195698881058349e-02 -2.914159582941228e-02 6.501339356215266e-02 -2.921024031618334e-02
            3.235138610170529e-01 4.649573887097609e-01 2.422947209601018e-01 -1.290807030762121e-01 6.500923434653741e-02 -2.923515768829534e-02 6.194172327478747e-02 -2.902984937889070e-02
434138448.7072560787 5.541451450975842e-02 -2.107187894987820e-02 5.528950162200388e-02 -2.250670845817673e-02 2.213775173598712e-01 -1.665060405731944e-01 3.925846991135646e-01 4.077323328795274e-01
            5.533498420408500e-02 -2.242207638407465e-02 5.544887844917915e-02 -2.104556423499400e-02 3.926892206929072e-01 4.077872618468237e-01 2.213764654129952e-01 -1.664806287396427e-01
            2.214537057804419e-01 -1.665537984938414e-01 3.926196438788611e-01 4.077336291951051e-01 5.277795014044754e-02 -2.166566793820780e-02 5.626460643150064e-02 -2.170278089985582e-02
            3.925700529572523e-01 4.077962638167024e-01 2.214380278834158e-01 -1.665406743780412e-01 5.630213757486544e-02 -2.174544722741201e-02 5.275426885884537e-02 -2.157845465016384e-02
434638031.6930775642 4.940430649364520e-02 -1.078213360549272e-02 4.935785292143132e-02 -1.266045261092623e-02 1.943921553086985e-01 -2.008963577221622e-01 4.515916982831723e-01 3.401087255794560e-01
            4.942658787743957e-02 -1.275082676305014e-02 4.934911200832802e-02 -1.083126423003923e-02 4.515299555026659e-01 3.401669403524593e-01 1.943885584079923e-01 -2.009737078933072e-01
            1.944104930678306e-01 -2.010390533275243e-01 4.516088242496573e-01 3.400745728080535e-01 4.648922181498488e-02 -1.140490668048641e-02 5.043908795679500e-02 -1.161176396981938e-02
            4.515635829860903e-01 3.401643994878293e-01 1.944200202784911e-01 -2.009626835903228e-01 5.045547007184985e-02 -1.164143206729957e-02 4.650695482091061e-02 -1.153178666091282e-02
435137614.6788991094 4.689860807026875e-02 9.673942468715935e-04 4.694898753135950e-02 -1.578172361730480e-03 1.616293791788578e-01 -2.310805754217738e-01 4.985928455387468e-01 2.638551712769698e-01
            4.696861366522903e-02 -1.519460405868924e-03 4.691916566677337e-02 9.503979269883211e-04 4.985768747479292e-01 2.638688894044226e-01 1.615165108643754e-01 -2.311838004236823e-01
            1.616129022871287e-01 -2.310837542852839e-01 4.985767770520564e-01 2.639205429915558e-01 4.372980189864647e-02 2.395298482207568e-04 4.805529595495518e-02 -2.093524828590806e-04
            4.986130073017845e-01 2.639026303175748e-01 1.616200277075472e-01 -2.311194308855519e-01 4.807158841476801e-02 -1.318076271711900e-04 4.368850634558291e-02 1.778210893987460e-04
435637197.6647205949 4.832264828100918e-02 1.283500398364569e-02 4.812932468705509e-02 9.929812493019403e-03 1.236991663004888e-01 -2.559462252839826e-01 5.324954678987811e-01 1.813793169061245e-01
            4.814185978101463e-02 9.997209568995349e-03 4.835879207282538e-02 1.292247257897792e-02 5.324865621258094e-01 1.814523570993672e-01 1.237581942121510e-01 -2.558965975772766e-01
            1.235961066283076e-01 -2.558707311021592e-01 5.325619898211907e-01 1.814409370501173e-01 4.480267455639424e-02 1.226982660819809e-02 4.936871293053582e-02 1.140609988082898e-02
            5.325659387404463e-01 1.814433057025255e-01 1.236484519038494e-01 -2.559001883397497e-01 4.956200125382958e-02 1.154954746242455e-02 4.476726143342095e-02 1.226985813307899e-02
436136780.6505421400 5.351450259859104e-02 2.369692086665649e-02 5.309620185002836e-02 2.050348819897084e-02 8.161682391153186e-02 -2.741912105084903e-01 5.526660779527472e-01 9.512081965183393e-02
            5.307125177520489e-02 2.053934924530940e-02 5.348146561935858e-02 2.363018175472774e-02 5.525645338925308e-01 9.515585237790278e-02 8.160339923199729e-02 -2.741776191953905e-01
            8.169449131525072e-02 -2.742482288443329e-01 5.526108739021669e-01 9.508394438686162e-02 4.977080534062311e-02 2.335137268683150e-02 5.448265958590293e-02 2.215078238297751e-02
            5.525609987468911e-01 9.515910042483611e-02 8.170481491719214e-02 -2.742276378256183e-01 5.449968903284717e-02 2.216409620327466e-02 4.969661697784001e-02 2.328560547526143e-02
436636363.6363636255 6.185305925517300e-02 3.229934281621689e-02 6.103467750311269e-02 2.894330636421566e-02 3.676675966665215e-02 -2.852509896696268e-01 5.584710532105727e-01 7.384024213623165e-03
            6.094845832921535e-02 2.897501909223141e-02 6.183818478575307e-02 3.234620288963720e-02 5.585557992722109e-01 7.361823401850849e-03 3.668764913532474e-02 -2.852616746213645e-01
            3.674417488756882e-02 -2.852824758612840e-01 5.585543286352813e-01 7.404095060147618e-03 5.789510184471645e-02 3.221618518166906e-02 6.276333765798923e-02 3.069263727554237e-02
            5.585030399038412e-01 7.343955568895484e-03 3.675729891345179e-02 -2.852466421537377e-01 6.267254576214022e-02 3.059329950628775e-02 5.788150018749638e-02 3.231601534016373e-02
437135946.6221851707 7.249353641484772e-02 3.779890769552491e-02 7.119978565130387e-02 3.441036357783319e-02 -9.605606513039381e-03 -2.886201805576917e-01 5.507154703567055e-01 -7.950866405995505e-02
            7.117113997205926e-02 3.440453057691369e-02 7.251508933343483e-02 3.773737199247292e-02 5.507363814843386e-01 -7.948617743197152e-02 -9.603241151479697e-03 -2.886087156572937e-01
            -9.630104518038836e-03 -2.885277814881718e-01 5.508035770821230e-01 -7.943786550176200e-02 6.843238976669247e-02 3.818900244102910e-02 7.305204323000344e-02 3.608923907747123e-02
            5.506630967137222e-01 -7.939248745439105e-02 -9.599865719480414e-03 -2.885571984658330e-01 7.315077991510124e-02 3.613363643665128e-02 6.849257305201334e-02 3.814964063126018e-02
437635529.6080066562 8.435216786302252e-02 3.962266643296340e-02 8.244097851860499e-02 3.642524520858303e-02 -5.588846089008587e-02 -2.839013553747859e-01 5.297312161463442e-01 -1.632252556186852e-01
            8.245811666984774e-02 3.644717303806261e-02 8.435267169061091e-02 3.965082420939550e-02 5.297353146382616e-01 -1.632828497935926e-01 -5.584583274043176e-02 -2.837594923270313e-01
            -5.582902853809201e-02 -2.839165491439154e-01 5.296832045607122e-01 -1.632755018216086e-01 8.023653559205718e-02 4.053643449567721e-02 8.453993207449108e-02 3.817054511801936e-02
            5.297135676453434e-01 -1.632636479348299e-01 -5.584079453000666e-02 -2.839275361222632e-01 8.463052562249103e-02 3.813914719969129e-02 8.024521282674893e-02 4.056226585162942e-02
438135112.5938282013 9.610260059720308e-02 3.768321677072706e-02 9.380944699836583e-02 3.488801357528505e-02 -1.005482414618954e-01 -2.715754877378117e-01 4.963417281023206e-01 -2.422758294194931e-01
            9.379229404921018e-02 3.490890587817962e-02 9.603251875121084e-02 3.773241344365422e-02 4.963577065221170e-01 -2.422709912542719e-01 -1.006015248896772e-01 -2.715793441307920e-01
            -1.005243275994279e-01 -2.716303934518229e-01 4.963861527919756e-01 -2.422528868031791e-01 9.202552662816572e-02 3.911523917673041e-02 9.617626281527665e-02 3.651471730772103e-02
            4.963795017450313e-01 -2.422818522117692e-01 -1.005492838066208e-01 -2.716627769989357e-01 9.615556397922294e-02 3.650621952175351e-02 9.205196077710458e-02 3.917554446648688e-02
438634695.5796496868 1.066216409340879e-01 3.228464458046142e-02 1.040409531720148e-01 2.992649317666117e-02 -1.423770887274334e-01 -2.523348812972173e-01 4.518047814310110e-01 -3.148722106960422e-01
            1.040836866912368e-01 2.999588435008612e-02 1.066060503404107e-01 3.235086900659656e-02 4.518336119724213e-01 -3.148278473770573e-01 -1.423201581288622e-01 -2.523687851159580e-01
            -1.423481233111078e-01 -2.523306154636214e-01 4.518365989243456e-01 -3.147721954820177e-01 1.028175628992216e-01 3.415148428190826e-02 1.065467058102895e-01 3.136218471303852e-02
            4.518658793081216e-01 -3.148352383988115e-01 -1.423974273805884e-01 -2.522749690416165e-01 1.065681377823407e-01 3.139793422415658e-02 1.028525506656627e-01 3.425377165760293e-02
439134278.5654712319 1.150328715167504e-01 2.393464438580556e-02 1.122812634913721e-01 2.218706575085535e-02 -1.801599319837744e-01 -2.266822511400342e-01 3.972025477896369e-01 -3.796177788497073e-01
            1.122567176777718e-01 2.213609560387051e-02 1.150474917678342e-01 2.399943928821717e-02 3.972736456740512e-01 -3.795480232813481e-01 -1.801448139749974e-01 -2.268162195509110e-01
            -1.801554358621499e-01 -2.266639484429519e-01 3.972231205924103e-01 -3.795812102684155e-01 1.116117434648095e-01 2.637388378241298e-02 1.149718761676067e-01 2.347339416075139e-02
            3.972033823565798e-01 -3.795844798160899e-01 -1.801403710169208e-01 -2.267649490866327e-01 1.150208626118570e-01 2.345086510817388e-02 1.115367819319474e-01 2.630191460851522e-02
439633861.5512927771 1.204541721495645e-01 1.349767803975322e-02 1.177873929926810e-01 1.222430812806826e-02 -2.131803029231462e-01 -1.957790427307905e-01 3.337787117731424e-01 -4.352867130482181e-01
            1.178018426824018e-01 1.223669413415747e-02 1.204268335948388e-01 1.345667446355642e-02 3.337831823230988e-01 -4.352857187198481e-01 -2.131983863165094e-01 -1.958014144598907e-01
            -2.131497237545652e-01 -1.958569789123375e-01 3.337512678176089e-01 -4.353364301531866e-01 1.175694923374887e-01 1.627094820826785e-02 1.205878031614930e-01 1.345775966701521e-02
            3.337207821736650e-01 -4.353629843084261e-01 -2.131435834455221e-01 -1.958231650139237e-01 1.205775449104867e-01 1.352096800756232e-02 1.175178808162163e-01 1.621984139509150e-02
440133444.5371142626 1.225682740157760e-01 1.703540946825790e-03 1.199842964456196e-01 1.247736710120679e-03 -2.407360178259087e-01 -1.605497137227482e-01 2.627032154743604e-01 -4.810298243434898e-01
            1.201012665794084e-01 1.222362050197361e-03 1.225351251756621e-01 1.695256481778976e-03 2.627242256811436e-01 -4.809295690300944e-01 -2.408437183930542e-01 -1.605174558910664e-01
            -2.407488235907204e-01 -1.605072398643290e-01 2.626753761035808e-01 -4.809446156101543e-01 1.201397101325178e-01 4.861368778013413e-03 1.229597410368646e-01 2.372737969404092e-03
            2.626503902406190e-01 -4.810257413226141e-01 -2.407548173318632e-01 -1.605256766286813e-01 1.230296290324580e-01 2.243828749540218e-03 1.201879189757324e-01 4.860438368797363e-03
440633027.5229358077 1.209912583398921e-01 -1.005009256457865e-02 1.189925915954655e-01 -1.006104148236640e-02 -2.626500828912586e-01 -1.217878840994329e-01 1.856216647376723e-01 -5.155723163888987e-01
            1.189373804185974e-01 -1.008241684692647e-02 1.209961181376258e-01 -1.000992266777192e-02 1.856178013182180e-01 -5.154604471484079e-01 -2.627303859945764e-01 -1.217933481910464e-01
            -2.626515738788532e-01 -1.218132786032639e-01 1.855679575360858e-01 -5.154565468179702e-01 1.193357440329833e-01 -6.813072964231993e-03 1.219503759617398e-01 -9.045019188951137e-03
            1.856335275544363e-01 -5.154544665583536e-01 -2.626780923133233e-01 -1.217671354720312e-01 1.219799930456591e-01 -9.011847523781905e-03 1.192920011760179e-01 -6.694644943397155e-03
441132610.5087572932 1.159924468226845e-01 -2.098612590535836e-02 1.144815838224606e-01 -2.055950976864194e-02 -2.785834468879546e-01 -8.050840580872280e-02 1.039671416588757e-01 -5.381532286236643e-01
            1.144158196076606e-01 -2.049279649192546e-02 1.160015820512881e-01 -2.100637957567716e-02 1.039219661921132e-01 -5.381838846025702e-01 -2.784949422084025e-01 -8.052462689163334e-02
            -2.785992166721999e-01 -8.048834518774683e-02 1.038310515407432e-01 -5.382145694772178e-01 1.149527028449196e-01 -1.743196717874550e-02 1.176343102916300e-01 -1.959238053805678e-02
            1.038802645910892e-01 -5.381359831936324e-01 -2.785481130123395e-01 -8.055208830761400e-02 1.175832308076297e-01 -1.955879076492001e-02 1.149771255916592e-01 -1.748344733605397e-02
441632193.4945788383 1.078895832682909e-01 -2.985273837789700e-02 1.070834846627143e-01 -2.910589515839071e-02 -2.883587449870037e-01 -3.750165225824732e-02 1.937999372259907e-02 -5.481891086432502e-01
            1.070107330336418e-01 -2.910223990098604e-02 1.079026509981145e-01 -2.989924031095865e-02 1.930124626296193e-02 -5.481793960924405e-01 -2.883384933420916e-01 -3.746186435903051e-02
            -2.883566161969935e-01 -3.738529591661501e-02 1.935799784539938e-02 -5.481476763716696e-01 1.075724321188325e-01 -2.640274768202047e-02 1.101955473465571e-01 -2.832806114569451e-02
            1.934635496832288e-02 -5.481901376197318e-01 -2.883429149999379e-01 -3.742570400105061e-02 1.103467502823953e-01 -2.834406667186952e-02 1.076640819501892e-01 -2.641600576675920e-02
442131776.4804003239 9.746785209094395e-02 -3.609993761589912e-02 9.731830892045701e-02 -3.520257711700604e-02 -2.919232157410983e-01 6.637401040703667e-03 -6.629796651447391e-02 -5.449221376126316e-01
            9.737485312079922e-02 -3.513010605752175e-02 9.747878260092492e-02 -3.605454853223415e-02 -6.637886797637575e-02 -5.450262973553535e-01 -2.918395231549344e-01 6.707060887609437e-03
            -2.917937290506585e-01 6.680643156448788e-03 -6.621109157479803e-02 -5.450177993550052e-01 9.796027707584265e-02 -3.277163401729498e-02 1.007379825823637e-01 -3.442231986344314e-02
            -6.633656087999198e-02 -5.449624974977157e-01 -2.918679543434518e-01 6.721067846165723e-03 1.007732812537834e-01 -3.439956004257756e-02 9.786453191223252e-02 -3.271099958696008e-02
442631359.4662218690 8.545766992866013e-02 -3.881248746278926e-02 8.620748771909217e-02 -3.799524091744606e-02 -2.890532750233876e-01 5.119680778876273e-02 -1.507981903800265e-01 -5.283377132041235e-01
            8.624577453145471e-02 -3.794070435577836e-02 8.549969221226779e-02 -3.879030453081301e-02 -1.508452173588668e-01 -5.282704427047108e-01 -2.889604251485701e-01 5.117221076532052e-02
            -2.890382994554124e-01 5.115322945444431e-02 -1.507577628803549e-01 -5.282694669606681e-01 8.663854841908566e-02 -3.567901697749570e-02 8.975659340785118e-02 -3.734109745133667e-02
            -1.507617799172680e-01 -5.283756146782648e-01 -2.890798151283789e-01 5.123436762746500e-02 8.979446357672184e-02 -3.736871818581604e-02 8.664030497819722e-02 -3.565885154678093e-02
443130942.4520433545 7.320562457292432e-02 -3.776210287390185e-02 7.466542731104975e-02 -3.714871017955235e-02 -2.797553632706903e-01 9.522344953129050e-02 -2.320636125654321e-01 -4.983835569602371e-01
            7.461458144597627e-02 -3.715682939659613e-02 7.328190344298369e-02 -3.780312134469456e-02 -2.319951633795258e-01 -4.983631066602525e-01 -2.797572664119309e-01 9.526055948156528e-02
            -2.797289360815167e-01 9.530412309180653e-02 -2.320351655376363e-01 -4.984127170727198e-01 7.503559038985844e-02 -3.507602486331776e-02 7.851362671378878e-02 -3.686468850084565e-02
            -2.320376729915907e-01 -4.983894547492991e-01 -2.797860166161465e-01 9.533423561458160e-02 7.850302359025796e-02 -3.685952468181418e-02 7.511798398959717e-02 -3.511138534426035e-02
443630525.4378648996 6.175842292868790e-02 -3.307314862656860e-02 6.389695387683646e-02 -3.296611733440289e-02 -2.637783760586219e-01 1.381884491364430e-01 -3.076856057980046e-01 -4.556240752479894e-01
            6.386340587297491e-02 -3.295450770827638e-02 6.175127805458629e-02 -3.301657793163184e-02 -3.076731943623561e-01 -4.556990145800853e-01 -2.638003304036144e-01 1.381818421705600e-01
            -2.638049460379435e-01 1.381838518465364e-01 -3.077009519857465e-01 -4.556232397959941e-01 6.417955744800348e-02 -3.085730379828159e-02 6.798030078181404e-02 -3.274901920132971e-02
            -3.077257649069963e-01 -4.555740413314361e-01 -2.637476698020206e-01 1.381770736647840e-01 6.801429547094752e-02 -3.273408291153548e-02 6.419074365146106e-02 -3.091888144467572e-02
444130108.4236863852 5.233009830303623e-02 -2.502285346074878e-02 5.488933155797592e-02 -2.548657600876773e-02 -2.412789635857272e-01 1.788256018256920e-01 -3.756177056354848e-01 -4.009835857098005e-01
            5.492137371093474e-02 -2.552625359241952e-02 5.218776534394870e-02 -2.495924452461364e-02 -3.755408805421003e-01 -4.009438769177997e-01 -2.412338469926972e-01 1.787315941013153e-01
            -2.412863746446832e-01 1.787958431715710e-01 -3.755248288330055e-01 -4.010559783207744e-01 5.517402801466872e-02 -2.339266834548361e-02 5.926981622194672e-02 -2.562920165676064e-02
            -3.755738463241769e-01 -4.009989930922473e-01 -2.412536922930680e-01 1.787633603790740e-01 5.926027010955718e-02 -2.559894167101706e-02 5.512866961664568e-02 -2.331340062412586e-02
444629691.4095079303 4.575132343850773e-02 -1.433914850659773e-02 4.878307861848195e-02 -1.564909215965183e-02 -2.120766043550728e-01 2.159932733744384e-01 -4.337120860587271e-01 -3.360694994759384e-01
            4.873097535692009e-02 -1.561965882536952e-02 4.569566456616632e-02 -1.433964853500351e-02 -4.336995014072516e-01 -3.360606340248657e-01 -2.120314059630242e-01 2.160404402659477e-01
            -2.120491920277726e-01 2.159469035214279e-01 -4.337514633650533e-01 -3.360521944541680e-01 4.905922438093697e-02 -1.343750433007803e-02 5.335306707093900e-02 -1.618037023129587e-02
            -4.337148610330150e-01 -3.360929099494852e-01 -2.120916809162626e-01 2.160600804044152e-01 5.328738103155956e-02 -1.621544387620706e-02 4.911204674667277e-02 -1.345533439039573e-02
445129274.3953294754 4.297432480015175e-02 -2.179706491804912e-03 4.612547165964676e-02 -4.395093272263706e-03 -1.767743937725970e-01 2.486923989383425e-01 -4.804241434063031e-01 -2.627447844145045e-01
            4.606144678695399e-02 -4.375167763779740e-03 4.283366160053476e-02 -2.219972354888242e-03 -4.803925700438407e-01 -2.626782933172349e-01 -1.768057430062457e-01 2.486106669746271e-01
            -1.767989159905967e-01 2.486508656066673e-01 -4.804335868304544e-01 -2.626540903366256e-01 4.652463489205329e-02 -2.166616994627613e-03 5.074049063386209e-02 -5.442616388598801e-03
            -4.803889864322055e-01 -2.627921279980712e-01 -1.768125520937881e-01 2.487787365917516e-01 5.078148961922364e-02 -5.398409132113309e-03 4.650397546681169e-02 -2.090076209193748e-03
445628857.3811509609 4.401739704572409e-02 1.008340397320687e-02 4.703239804738581e-02 7.015784162673424e-03 -1.360093086449813e-01 2.755326219512574e-01 -5.143824002240642e-01 -1.830756507867754e-01
            4.706835507790764e-02 7.084595044344202e-03 4.401586826148018e-02 1.018030208043960e-02 -5.143921039528491e-01 -1.831680846757932e-01 -1.360395967756224e-01 2.755355202979102e-01
            -1.360458013167686e-01 2.755813947168096e-01 -5.143681613846285e-01 -1.830458789273580e-01 4.762262558454799e-02 9.414082349181578e-03 5.195529013955702e-02 5.511220371917415e-03
            -5.143435259723872e-01 -1.830657399944034e-01 -1.360544026754415e-01 2.755567282347258e-01 5.195154409241338e-02 5.572519513017792e-03 4.763563538209639e-02 9.385159756335562e-03
446128440.3669725060 4.885077627121655e-02 2.133987560703708e-02 5.160068660779122e-02 1.739418918701701e-02 -9.091195936759276e-02 2.954792456922751e-01 -5.349777616120773e-01 -9.958204929643716e-02
            5.159983565114502e-02 1.746048588060096e-02 4.887789897155463e-02 2.134681910828477e-02 -5.349910728051340e-01 -9.955521780733378e-02 -9.092680780509574e-02 2.954901995303663e-01
            -9.082978496654943e-02 2.954746561481035e-01 -5.349562000883580e-01 -9.954474076560822e-02 5.243670388591467e-02 2.001333328613984e-02 5.641108398881917e-02 1.530205529010749e-02
            -5.349054680507823e-01 -9.957722087733474e-02 -9.092180616425406e-02 2.954562434105017e-01 5.642585666426742e-02 1.536247369241723e-02 5.240358980629420e-02 1.988356734731135e-02
446628023.3527939916 5.698009539320131e-02 3.053095293924739e-02 5.909239045680018e-02 2.576795448857534e-02 -4.274947011727739e-02 3.076582750197503e-01 -5.418581032619191e-01 -1.454348865477280e-02
            5.910319912051022e-02 2.581618976428778e-02 5.686399519210029e-02 3.047592560497448e-02 -5.418783784983441e-01 -1.441719690839435e-02 -4.269782744435970e-02 3.076532087271086e-01
            -4.271258786359158e-02 3.077075384467262e-01 -5.419505595212797e-01 -1.451859292120821e-02 6.028069430629223e-02 2.831692006556809e-02 6.390852124214823e-02 2.300074594930029e-02
            -5.419202098911702e-01 -1.443605819492591e-02 -4.267247969875895e-02 3.077124443774488e-01 6.393018186194023e-02 2.306447959837383e-02 6.029703391424483e-02 2.825180566661351e-02
447127606.3386155367 6.732736900121232e-02 3.645253123936874e-02 6.870456796874512e-02 3.119823837355468e-02 7.093504814230223e-03 3.116163545587440e-01 -5.354622931756138e-01 6.989382296450164e-02
            6.878309459243165e-02 3.116051340457648e-02 6.735928194070474e-02 3.644099284557973e-02 -5.354429001763811e-01 6.993162742296384e-02 7.137006876054737e-03 3.116407072365919e-01
            7.170206173661236e-03 3.116590092394747e-01 -5.354333070973579e-01 6.993608641308667e-02 7.025338813603990e-02 3.363973170914319e-02 7.329522917971179e-02 2.786808681656024e-02
            -5.353962807468583e-01 6.986029890659910e-02 7.067671900070209e-03 3.115999930390728e-01 7.324948523342040e-02 2.783950279559724e-02 7.030378867146748e-02 3.362244785881275e-02
447627189.3244370222 7.883883727452906e-02 3.880389270416196e-02 7.948725933733534e-02 3.323596053714046e-02 5.685505892972698e-02 3.071656305489967e-01 -5.161287044736207e-01 1.516615610429121e-01
            7.949924985818684e-02 3.324071452882806e-02 7.885398244788325e-02 3.888033270394792e-02 -5.160881247582603e-01 1.516601290024103e-01 5.691294700504685e-02 3.072422846612071e-01
            5.680167700870124e-02 3.071768394138304e-01 -5.160410337047128e-01 1.516531177945486e-01 8.132604466839684e-02 3.540758665827989e-02 8.371656979855772e-02 2.927307209481238e-02
            -5.161942208475164e-01 1.515449254690120e-01 5.680177351741260e-02 3.072237272160088e-01 8.368329445719011e-02 2.933736884180006e-02 8.123363694208414e-02 3.544378383322259e-02
448126772.3102585673 9.039617191778966e-02 3.754466552799571e-02 9.002454753266519e-02 3.173453806042365e-02 1.051576568856270e-01 2.946190072847332e-01 -4.848407252170592e-01 2.287563474433703e-01
            9.000868765869099e-02 3.177372393091133e-02 9.035530029004520e-02 3.765242556592344e-02 -4.848605704217364e-01 2.288542386660919e-01 1.050080743391671e-01 2.947283745413997e-01
            1.049582351512621e-01 2.946640435170130e-01 -4.847996309111941e-01 2.287629359284029e-01 9.232630257770229e-02 3.382453676373547e-02 9.382020073476866e-02 2.730419024975331e-02
            -4.848374053138452e-01 2.287652142786195e-01 1.051405401143913e-01 2.946778222030522e-01 9.379071412166815e-02 2.731185951611345e-02 9.236416598751290e-02 3.380522851436433e-02
448626355.2960800529 1.008631701652339e-01 3.288815003765299e-02 9.947226629393291e-02 2.706836765854164e-02 1.502058381082088e-01 2.744611608879374e-01 -4.424635429611786e-01 2.998885882774518e-01
            9.946713668410155e-02 2.705866144793515e-02 1.008794233765768e-01 3.293334477440134e-02 -4.424988770267089e-01 2.998198353007852e-01 1.502405501064975e-01 2.744702522353193e-01
            1.502490730928456e-01 2.745087660629498e-01 -4.425660261175008e-01 2.998557314417123e-01 1.022035012728743e-01 2.888859570487040e-02 1.027589713623371e-01 2.222037271587743e-02
            -4.424760637955975e-01 2.998569076553032e-01 1.502887345204971e-01 2.744630625703407e-01 1.028017918523082e-01 2.228248761566171e-02 1.021924645530964e-01 2.887606104895825e-02
449125938.2819015980 1.092099925547465e-01 2.525360572718243e-02 1.068934549640834e-01 1.975938328455027e-02 1.914080621267684e-01 2.475651261208758e-01 -3.901554987277439e-01 3.635247590860458e-01
            1.068825636266754e-01 1.981012932352941e-02 1.092483372406364e-01 2.527081276899501e-02 -3.901623320017708e-01 3.635114280836916e-01 1.914240805697554e-01 2.475288359730655e-01
            1.914595656975619e-01 2.475471004165390e-01 -3.902314150259872e-01 3.634397960286802e-01 1.097837199167174e-01 2.116419726517330e-02 1.096424605211747e-01 1.453666781755986e-02
            -3.902165899932116e-01 3.635755636446303e-01 1.914088470509629e-01 2.475309759200322e-01 1.096128855395583e-01 1.456843451835872e-02 1.098164119536819e-01 2.117685177901638e-02
449625521.2677230835 1.148653621733569e-01 1.563152189191689e-02 1.116411286821051e-01 1.047845341692570e-02 2.276109875420516e-01 2.147419112182473e-01 -3.292789802566016e-01 4.184566680532539e-01
            1.116233551449279e-01 1.057643636932090e-02 1.148707001704224e-01 1.553657497229872e-02 -3.291658593195657e-01 4.185201039165474e-01 2.276794566395250e-01 2.147936906834003e-01
            2.276487261517385e-01 2.148010693989527e-01 -3.292061952182205e-01 4.185393073404239e-01 1.147703723121537e-01 1.144883270776993e-02 1.136671394076200e-01 5.029497796799569e-03
            -3.291304429876324e-01 4.185015990587440e-01 2.276636799501612e-01 2.147244032641513e-01 1.136721104830464e-01 5.070613109592948e-03 1.148414208240064e-01 1.144355272820920e-02
450125104.2535446286 1.171233733763520e-01 4.656239597533965e-03 1.131799330197101e-01 4.088528350882513e-04 2.582476975062207e-01 1.771833112477238e-01 -2.606505909844247e-01 4.637956562653491e-01
            1.131296928836356e-01 4.652516920432607e-04 1.171554331984266e-01 4.665394383211922e-03 -2.606436767943850e-01 4.637486433262468e-01 2.581390302379902e-01 1.771546045515278e-01
            2.581858706314215e-01 1.771459708043786e-01 -2.605620290619531e-01 4.637746350133046e-01 1.164581680422115e-01 7.665526250786502e-04 1.144969826359619e-01 -5.295357533138205e-03
            -2.606136871183456e-01 4.637015962939757e-01 2.582005106627304e-01 1.771496691213722e-01 1.145190566785591e-01 -5.343586896036531e-03 1.165039009041574e-01 7.826512556460219e-04
450624687.2393661737 1.159243040789854e-01 -6.338611759832489e-03 1.114955536231677e-01 -9.620106352611608e-03 2.826359723496061e-01 1.356259821019932e-01 -1.859834417756571e-01 4.982222827333745e-01
            1.114943902079173e-01 -9.676640500234110e-03 1.160102969221339e-01 -6.306623312684697e-03 -1.859343342598851e-01 4.982293725935010e-01 2.826518687865293e-01 1.355302219371209e-01
            2.826637493699478e-01 1.355798915450740e-01 -1.859534175366621e-01 4.981552143948656e-01 1.148355692844711e-01 -9.896768672236288e-03 1.121560199012681e-01 -1.543935412967408e-02
            -1.859693163545400e-01 4.982119513961805e-01 2.825912108268845e-01 1.355814352152685e-01 1.120805996716461e-01 -1.548821701334211e-02 1.148389185217289e-01 -9.886730507896081e-03
451124270.2251876593 1.114513665254043e-01 -1.641582691208123e-02 1.065548919001384e-01 -1.883860990732390e-02 3.006258061275592e-01 9.102475668844642e-02 -1.065981420861605e-01 5.210217861792166e-01
            1.064660292031449e-01 -1.877971306736042e-02 1.115387996021397e-01 -1.644446404970172e-02 -1.065640900826999e-01 5.210386239967800e-01 3.006554417278913e-01 9.100997047073783e-02
            3.005468868017858e-01 9.097877347301056e-02 -1.066162993776531e-01 5.210472618316626e-01 1.099588865390664e-01 -1.950088466573501e-02 1.065080908406379e-01 -2.453109077263271e-02
            -1.066711912149724e-01 5.210560184444266e-01 3.006353892754927e-01 9.102573046136340e-02 1.064947207791133e-01 -2.453049792071568e-02 1.099879175929421e-01 -1.953343439553263e-02
451623853.2110092044 1.041009785346887e-01 -2.460670214253122e-02 9.907409627658707e-02 -2.594755295572396e-02 3.119724571783190e-01 4.417452813726348e-02 -2.443892099155092e-02 5.315324351675058e-01
            9.903273847999260e-02 -2.601396837249511e-02 1.040693585626403e-01 -2.462990698070609e-02 -2.444917385997409e-02 5.314856608318093e-01 3.120133260105895e-01 4.424948216691483e-02
            3.119786854601460e-01 4.420598219853324e-02 -2.441370143463701e-02 5.314646985070366e-01 1.022888156603108e-01 -2.720248866108000e-02 9.849524530958925e-02 -3.143752064727691e-02
            -2.444175343375940e-02 5.315266058295988e-01 3.119704946159000e-01 4.419592685627556e-02 9.845682044335563e-02 -3.145242226377681e-02 1.024058454734056e-01 -2.709790605798367e-02
452123436.1968306899 9.452981763372596e-02 -3.003563453151288e-02 8.956345073303110e-02 -3.034706156644202e-02 3.164780009396073e-01 -3.817751724850746e-03 5.882185847980616e-02 5.290509335786396e-01
            8.946515284433250e-02 -3.038300871709346e-02 9.454761129942837e-02 -3.005403955904492e-02 5.884044846617753e-02 5.290658352642538e-01 3.164034126281579e-01 -3.869923532393147e-03
            3.164335303481534e-01 -3.895745600895966e-03 5.877605235342146e-02 5.289994467953785e-01 9.254418802983841e-02 -3.208187340628462e-02 8.839895643104401e-02 -3.563537950808515e-02
            5.892849784159903e-02 5.290103585938187e-01 3.163699610044753e-01 -3.845572468585253e-03 8.834501426051283e-02 -3.555850734357928e-02 9.259436906174301e-02 -3.210828546655543e-02
452623019.1826522350 8.366379165346541e-02 -3.229496459341729e-02 7.892935883082730e-02 -3.162963322819699e-02 3.138909455281204e-01 -5.246955242703340e-02 1.410659796988653e-01 5.134776140773808e-01
            7.889463000040721e-02 -3.159069673677992e-02 8.369699551997119e-02 -3.227014329726994e-02 1.410932205930482e-01 5.134272457384483e-01 3.137275675866997e-01 -5.252372755309626e-02
            3.138675551803110e-01 -5.240145249932470e-02 1.410928641154235e-01 5.135025494006359e-01 8.181158210208174e-02 -3.376082512422182e-02 7.729301075201275e-02 -3.653171059420524e-02
            1.411603455262202e-01 5.134508561285870e-01 3.137636928682404e-01 -5.243379643271348e-02 7.724537001065564e-02 -3.652140436789930e-02 8.175580462299380e-02 -3.371261460128184e-02
453122602.1684737206 7.271441589945994e-02 -3.098135541558687e-02 6.834675566880453e-02 -2.928707979224392e-02 3.040099139428887e-01 -1.006562282051651e-01 2.201520664112291e-01 4.848656176708102e-01
            6.820124298641768e-02 -2.939566120449073e-02 7.273971620679277e-02 -3.101327843783729e-02 2.201472129747707e-01 4.849088575927777e-01 3.039590770312662e-01 -1.006867255198548e-01
            3.039137089034352e-01 -1.006590929202436e-01 2.200508727366631e-01 4.848950050746294e-01 7.098359058349289e-02 -3.183372419155360e-02 6.630442278996521e-02 -3.391227949585309e-02
            2.200418665933765e-01 4.848377599783701e-01 3.039628861689616e-01 -1.007625568918780e-01 6.634614246268770e-02 -3.393350763518799e-02 7.091109670114727e-02 -3.185048480324780e-02
453622185.1542952657 6.260237978679085e-02 -2.622676368130499e-02 5.875605603232722e-02 -2.372090440085333e-02 2.867415460427580e-01 -1.474804363891569e-01 2.936524386893794e-01 4.438169627028341e-01
            5.879854353698456e-02 -2.377134157574091e-02 6.260104875122847e-02 -2.623012104204929e-02 2.936987814104456e-01 4.437368899881571e-01 2.867593408721739e-01 -1.475124063536900e-01
            2.867719427412322e-01 -1.474991806945736e-01 2.936631374043831e-01 4.437474377023842e-01 6.124364879265865e-02 -2.653606197889150e-02 5.651572583037705e-02 -2.796337193989424e-02
            2.936661501779143e-01 4.437617596767081e-01 2.867257389701399e-01 -1.475160494452163e-01 5.646921800596622e-02 -2.789870322458966e-02 6.119331673536882e-02 -2.653683837726319e-02
454121768.1401167512 5.459058335404496e-02 -1.850929621983507e-02 5.138962814852360e-02 -1.539025080961700e-02 2.621052911765967e-01 -1.917051158605277e-01 3.596827245554808e-01 3.912687821403623e-01
            5.148309920192100e-02 -1.533012480636565e-02 5.460717399813948e-02 -1.843359989222153e-02 3.596404471559864e-01 3.911803522586128e-01 2.621538426122139e-01 -1.917786069863766e-01
            2.621105437798497e-01 -1.917865485731896e-01 3.596831459531107e-01 3.911976189314796e-01 5.371800430113282e-02 -1.839790324229850e-02 4.896241962287335e-02 -1.910743994494643e-02
            3.596040141954801e-01 3.912097839377291e-01 2.620987196704517e-01 -1.917638808555469e-01 4.899424345332998e-02 -1.912793429227358e-02 5.371051890968265e-02 -1.834993526512702e-02
454621351.1259382963 4.945274070699334e-02 -8.471624902379267e-03 4.714027118780654e-02 -4.769753493559689e-03 2.304056966348533e-01 -2.321178671148974e-01 4.161080088349449e-01 3.287487726097660e-01
            4.708866020410165e-02 -4.928396948604914e-03 4.949848895156832e-02 -8.484270006456681e-03 4.161683832737348e-01 3.288467935843881e-01 2.304599391951747e-01 -2.322298047867347e-01
            2.303871916412895e-01 -2.322007396761284e-01 4.162111057336191e-01 3.288002332323803e-01 4.919009053163543e-02 -8.166623002039417e-03 4.454557376038180e-02 -8.340774009438790e-03
            4.161101769309747e-01 3.287379518837408e-01 2.303945909761265e-01 -2.321784391648699e-01 4.453617487701983e-02 -8.330568342543119e-03 4.918932213828054e-02 -8.123288774122992e-03
455120934.1117597818 4.779851323472770e-02 2.453376057611297e-03 4.640534530966733e-02 6.588864690590112e-03 1.920310175131966e-01 -2.675257451921663e-01 4.615338945190584e-01 2.582436484677035e-01
            4.641800508781856e-02 6.621243122384133e-03 4.782879487071188e-02 2.521105862631087e-03 4.615961151594719e-01 2.582691776871571e-01 1.920709358399104e-01 -2.675144054461036e-01
            1.921116653205948e-01 -2.673823279723175e-01 4.615852174736687e-01 2.581740321767973e-01 4.819779835526625e-02 3.007013309036568e-03 4.364873415078541e-02 3.391379256793942e-03
            4.615876642667666e-01 2.582311309935944e-01 1.921235837995255e-01 -2.673936668815589e-01 4.367927163408980e-02 3.514042307929658e-03 4.813290803952400e-02 3.041651951763765e-03
455620517.0975813270 4.981444046247135e-02 1.338212910417838e-02 4.929629886786093e-02 1.777740177311905e-02 1.479153232178367e-01 -2.963127994467156e-01 4.947629238136957e-01 1.816731103186369e-01
            4.928588394451851e-02 1.780436434342136e-02 4.984694678314918e-02 1.348176077604418e-02 4.947509387326540e-01 1.815801571066388e-01 1.479728818293678e-01 -2.962728958552943e-01
            1.480028710781287e-01 -2.962197469101913e-01 4.947457351490815e-01 1.816624366257600e-01 5.098071580592913e-02 1.395724178142534e-02 4.647763911651222e-02 1.485936483441961e-02
            4.947721557510295e-01 1.816816113259014e-01 1.479549984051091e-01 -2.962809502389410e-01 4.646511496639776e-02 1.490043122299468e-02 5.093692383774228e-02 1.395230335634564e-02
456120100.0834028721 5.522782642924383e-02 2.305230863199647e-02 5.550704822793632e-02 2.757102097438538e-02 9.922815645349704e-02 -3.175824613547412e-01 5.150876411840086e-01 1.013732862948242e-01
            5.559226828354692e-02 2.752982670194752e-02 5.520475328229271e-02 2.302463506978841e-02 5.151450181679328e-01 1.013851177579175e-01 9.925758244687584e-02 -3.175869056922569e-01
            9.930802111829154e-02 -3.175537683553744e-01 5.151338967982133e-01 1.013863298543917e-01 5.698034775948375e-02 2.335451911292360e-02 5.265049778078621e-02 2.483315422864524e-02
            5.151326318458299e-01 1.013776440993537e-01 9.929486870294787e-02 -3.175927913515060e-01 5.262779393373491e-02 2.481799242120312e-02 5.697587871358767e-02 2.326971879790450e-02
456619683.0692243576 6.332764666686883e-02 3.047774636723658e-02 6.460213076737552e-02 3.489725172450174e-02 4.743250702090943e-02 -3.304479890324514e-01 5.224872860203031e-01 1.963723964965446e-02
            6.460200876563488e-02 3.492847413519101e-02 6.328383412738380e-02 3.047035151689004e-02 5.224568569666594e-01 1.953270549502511e-02 4.747355317354673e-02 -3.304996438178966e-01
            4.746530066032994e-02 -3.304344935028657e-01 5.224557052255174e-01 1.962147204432592e-02 6.583138503951923e-02 3.035837158640797e-02 6.159277152746619e-02 3.238079254403821e-02
            5.223978177774498e-01 1.958041405202065e-02 4.742151532675809e-02 -3.305126521224294e-01 6.165535957293818e-02 3.233510095235535e-02 6.583746202751391e-02 3.026390219345724e-02
457119266.0550459027 7.326146812903096e-02 3.476636206161697e-02 7.534630671230193e-02 3.910353146091423e-02 -5.862293723783557e-03 -3.345732799673750e-01 5.170439685132244e-01 -6.154828308375816e-02
            7.536062307308961e-02 3.909389430548121e-02 7.331098101174645e-02 3.477531473057151e-02 5.170168923137961e-01 -6.142861494313978e-02 -5.853494336815797e-03 -3.345481590424015e-01
            -5.859581320823206e-03 -3.346013696952325e-01 5.170186161419803e-01 -6.152936096505241e-02 7.641809845809878e-02 3.403327334671319e-02 7.224914288059366e-02 3.662053314216522e-02
            5.170623899403554e-01 -6.161190393573868e-02 -5.831680467025487e-03 -3.345522839852993e-01 7.226738614112732e-02 3.674054098029245e-02 7.632306171387654e-02 3.399618692918863e-02
457618849.0408673882 8.396670708231295e-02 3.575392875764326e-02 8.685239280557684e-02 3.975158535545088e-02 -5.910322382224124e-02 -3.297062827030989e-01 4.992928660697279e-01 -1.402293781655678e-01
            8.687097698077756e-02 3.980828559968365e-02 8.408251028251856e-02 3.571607341616340e-02 4.992991562464367e-01 -1.402557526674701e-01 -5.907545584621991e-02 -3.298036568570693e-01
            -5.904699878762106e-02 -3.297946883522320e-01 4.993231220189708e-01 -1.402515216567230e-01 8.749726328386349e-02 3.432273478821470e-02 8.369116187097110e-02 3.751534396643221e-02
            4.993820541309811e-01 -1.403084202638628e-01 -5.911152517375560e-02 -3.297660689050118e-01 8.362425956452330e-02 3.748999455079100e-02 8.759875613570446e-02 3.432470084946832e-02
458118432.0266889334 9.441957393791987e-02 3.321817294120827e-02 9.810032306406398e-02 3.700724962949952e-02 -1.105666728258205e-01 -3.164116523484596e-01 4.701355732110379e-01 -2.148411893359400e-01
            9.799330821121725e-02 3.702745137452883e-02 9.437569263548416e-02 3.318857034202600e-02 4.701207195913830e-01 -2.148459726550176e-01 -1.105883035371386e-01 -3.164738636978445e-01
            -1.105036197592239e-01 -3.164171363352311e-01 4.702060540816658e-01 -2.148406728191425e-01 9.817200037000323e-02 3.107613990707257e-02 9.459229375714601e-02 3.488545156805036e-02
            4.701517588282544e-01 -2.147941810910650e-01 -1.105857017929525e-01 -3.163912098656192e-01 9.456879026712808e-02 3.491718022332195e-02 9.821037977576519e-02 3.106882756011348e-02
458618015.0125104189 1.033854845776861e-01 2.765580754332691e-02 1.077965622535379e-01 3.102641230467463e-02 -1.588677937916003e-01 -2.950682297426271e-01 4.302418382533183e-01 -2.837477232542961e-01
            1.078017978532529e-01 3.092274129435483e-02 1.034426695865447e-01 2.766050956385736e-02 4.302541386162840e-01 -2.836846237111484e-01 -1.589085297754156e-01 -2.950499420555996e-01
            -1.589068849045504e-01 -2.951033911635864e-01 4.301817856826806e-01 -2.837076154714766e-01 1.073419915570485e-01 2.455673330211555e-02 1.040678085777323e-01 2.909894554240636e-02
            4.303582066726306e-01 -2.836283003170164e-01 -1.589003902307067e-01 -2.950275423884965e-01 1.040711046864279e-01 2.912947371540073e-02 1.072626858313890e-01 2.464323286999295e-02
459117597.9983319640 1.102179048306799e-01 1.947949716454892e-02 1.151893000043850e-01 2.243439515154441e-02 -2.029419781555510e-01 -2.664936539575529e-01 3.808278342680157e-01 -3.456781665356824e-01
            1.150769035666706e-01 2.248844303209554e-02 1.101347023001398e-01 1.961833251656373e-02 3.808873202238700e-01 -3.456909745249108e-01 -2.029269839421990e-01 -2.665687391416398e-01
            -2.029880929117051e-01 -2.665659419997354e-01 3.808592491997331e-01 -3.456579887429216e-01 1.139798242207051e-01 1.567297531040785e-02 1.112635995219976e-01 2.091643434736651e-02
            3.808134032615590e-01 -3.457094692729712e-01 -2.029430737691997e-01 -2.665355562926565e-01 1.112490466675890e-01 2.096110153220646e-02 1.140828679502303e-01 1.572807422554835e-02
459617180.9841534495 1.141146029102714e-01 9.799041987585981e-03 1.196167048092069e-01 1.213107634471755e-02 -2.416941665850937e-01 -2.318385587145785e-01 3.228460180742663e-01 -3.994763031553801e-01
            1.196641202618260e-01 1.221509239087755e-02 1.141219222240990e-01 9.749553166353826e-03 3.227837738268464e-01 -3.994847407122840e-01 -2.417500260217864e-01 -2.318194225257943e-01
            -2.417594402880835e-01 -2.318553945089436e-01 3.228131882817582e-01 -3.996139001050465e-01 1.176575049154235e-01 5.152698997795526e-03 1.155273320641999e-01 1.085096509284416e-02
            3.228221051602346e-01 -3.994786617225708e-01 -2.417045839522265e-01 -2.318759545585895e-01 1.155324385645760e-01 1.088827537004219e-02 1.176662154508502e-01 5.179503970687338e-03
460116763.9699749947 1.148876335122403e-01 -6.494697592377217e-04 1.208258791899384e-01 1.070731546104604e-03 -2.745816639305438e-01 -1.919184241051043e-01 2.573339673262245e-01 -4.440965312765587e-01
            1.208892340533562e-01 1.069246237277514e-03 1.147845883777959e-01 -7.178520793082602e-04 2.572687520360144e-01 -4.441215630551996e-01 -2.746492960587764e-01 -1.919328718538197e-01
            -2.745855895443981e-01 -1.919143488854330e-01 2.573574453957799e-01 -4.440573627820749e-01 1.178205913343561e-01 -6.085521333764191e-03 1.165970601313077e-01 2.101760001217968e-04
            2.573467048707698e-01 -4.441054848251079e-01 -2.746239303285978e-01 -1.919498066466475e-01 1.166736251054147e-01 1.809279882183688e-04 1.178290376068295e-01 -6.092948916225524e-03
460616346.9557964802 1.122246101519930e-01 -1.082584582709824e-02 1.186988941627963e-01 -9.785883495600969e-03 -3.010725362989419e-01 -1.477122627640093e-01 1.856430296539840e-01 -4.783964535384501e-01
            1.186657523687873e-01 -9.745943515509238e-03 1.122692991680662e-01 -1.094370937943656e-02 1.856500455034348e-01 -4.784573749703210e-01 -3.011021420063848e-01 -1.477351769570798e-01
            -3.010437109117188e-01 -1.477338146205854e-01 1.856559123683078e-01 -4.783654260543255e-01 1.146556977898068e-01 -1.694242887555902e-02 1.142962660474661e-01 -1.027448343504067e-02
            1.857668285867755e-01 -4.784434905202012e-01 -3.010389776908526e-01 -1.477198000392289e-01 1.142407900868733e-01 -1.016507717358658e-02 1.147583776479151e-01 -1.692944355946806e-02
461115929.9416180253 1.066206886201353e-01 -1.989548336220462e-02 1.133862414187780e-01 -1.948488080564340e-02 -3.207581191313157e-01 -1.002648340842777e-01 1.094324214073930e-01 -5.015270853103957e-01
            1.133747663048607e-01 -1.948963983156124e-02 1.066123646450106e-01 -2.001020658127243e-02 1.094136818596870e-01 -5.015121209419283e-01 -3.207287801103889e-01 -1.002811687447069e-01
            -3.207340980187222e-01 -1.003388591445935e-01 1.094180202311920e-01 -5.015942615999158e-01 1.083367277690022e-01 -2.638632749956656e-02 1.089673362700155e-01 -1.928887381740543e-02
            1.094380341201393e-01 -5.014926407873187e-01 -3.207643899043694e-01 -1.002524557867534e-01 1.089389308111311e-01 -1.940778233828373e-02 1.083027638905732e-01 -2.643892324137963e-02
461615512.9274395704 9.835727229605686e-02 -2.669012799583859e-02 1.054874674159765e-01 -2.708602157316489e-02 -3.332611530439756e-01 -5.032808355401552e-02 3.009011450734918e-02 -5.127310892952330e-01
            1.054504729754361e-01 -2.709097883878022e-02 9.836678707570871e-02 -2.675930481157699e-02 2.999886902800764e-02 -5.126933605073829e-01 -3.334010681754650e-01 -5.038334989427820e-02
            -3.333452532809543e-01 -5.028456041139248e-02 3.008175476236803e-02 -5.127335659812159e-01 9.936114953703039e-02 -3.351792439485459e-02 1.010431828998921e-01 -2.640551298881385e-02
            3.009910649359635e-02 -5.126934407560925e-01 -3.333220498388282e-01 -5.032526991974710e-02 1.009497028514749e-01 -2.641129839853815e-02 9.930653845807119e-02 -3.361163317143143e-02
462115095.9132610559 8.820776569016854e-02 -3.070777709752712e-02 9.552551910453741e-02 -3.175641414594374e-02 -3.385201513937559e-01 1.109319137828263e-03 -5.046667683628150e-02 -5.114516773377394e-01
            9.552052352263514e-02 -3.184094586940420e-02 8.822367134118583e-02 -3.067509682915991e-02 -5.042880922774379e-02 -5.113227098496930e-01 -3.385224720487686e-01 1.039194038274537e-03
            -3.385030920501255e-01 1.116298286562358e-03 -5.040185812488579e-02 -5.113196694319149e-01 8.836786975750535e-02 -3.777181844117605e-02 9.120489810759733e-02 -3.062711499437884e-02
            -5.041431704196549e-02 -5.112991114772677e-01 -3.385200012518446e-01 1.058522144996158e-03 9.121709228281712e-02 -3.058292122554280e-02 8.837928184269757e-02 -3.771640434612734e-02
462614678.8990826011 7.728416418325183e-02 -3.131112091450289e-02 8.457493153522469e-02 -3.329875674851943e-02 -3.361166895316493e-01 5.319311029541288e-02 -1.300874068612847e-01 -4.971918200784125e-01
            8.464906601338451e-02 -3.323932777280288e-02 7.732279868498983e-02 -3.135383115008246e-02 -1.301227640204039e-01 -4.972329435573442e-01 -3.361441791978043e-01 5.316904861171529e-02
            -3.360910213367181e-01 5.316570663464588e-02 -1.300591637184196e-01 -4.971238856355640e-01 7.665439412899287e-02 -3.831820526399446e-02 8.054573156314641e-02 -3.154146297223221e-02
            -1.300531045076785e-01 -4.971743856604612e-01 -3.361079472679664e-01 5.316758507866308e-02 8.050098506185051e-02 -3.158916783296964e-02 7.653923932663774e-02 -3.822804914808810e-02
463114261.8849040866 6.653841777654521e-02 -2.846675893370617e-02 7.393928396267796e-02 -3.124774008507073e-02 -3.258943600236492e-01 1.049449852459921e-01 -2.068822435743273e-01 -4.703385862652988e-01
            7.382696734084841e-02 -3.123038102602316e-02 6.652213862036660e-02 -2.849743758232700e-02 -2.068359715674623e-01 -4.703540829933782e-01 -3.258622051330443e-01 1.048479103683282e-01
            -3.259199022478798e-01 1.048998837478430e-01 -2.067789388858371e-01 -4.702974831860404e-01 6.516366459801599e-02 -3.512977020116212e-02 7.013063014191270e-02 -2.899303746297974e-02
            -2.068240513348422e-01 -4.703853888898801e-01 -3.259421128368115e-01 1.049327550667594e-01 7.012531330011740e-02 -2.899347157703579e-02 6.514211637322673e-02 -3.516955119314879e-02
463613844.8707256317 5.709988289661138e-02 -2.221950933913663e-02 6.434003779595258e-02 -2.585633999396435e-02 -3.076701587240319e-01 1.551665281612097e-01 -2.782624595177477e-01 -4.314283000708929e-01
            6.429159717834736e-02 -2.583457120772405e-02 5.713162302668887e-02 -2.230290978624477e-02 -2.782396006203085e-01 -4.314028855854941e-01 -3.077486755089802e-01 1.551687919058767e-01
            -3.078647022631435e-01 1.551544852713172e-01 -2.781754954017622e-01 -4.314226924812371e-01 5.507732218643271e-02 -2.867017615943392e-02 6.088010646077701e-02 -2.316182090999503e-02
            -2.783320935976246e-01 -4.314420291207104e-01 -3.078354493323561e-01 1.550833143659146e-01 6.108070659479189e-02 -2.328206805154204e-02 5.503007436470775e-02 -2.859233463176769e-02
464113427.8565471172 5.007432128562975e-02 -1.330954378046244e-02 5.697322342635916e-02 -1.768949610043226e-02 -2.817169441950760e-01 2.026240799160307e-01 -3.424537404046765e-01 -3.813951305726714e-01
            5.692147290541805e-02 -1.771038350845644e-02 5.008439422495534e-02 -1.330611776031449e-02 -3.424598428510259e-01 -3.812302633052567e-01 -2.816273903980640e-01 2.026057238631954e-01
            -2.817219022805613e-01 2.026016499409053e-01 -3.424186859265724e-01 -3.813241281203496e-01 4.750294081244888e-02 -1.920703378799292e-02 5.422801265858473e-02 -1.476155020769138e-02
            -3.424724545727896e-01 -3.812785509814130e-01 -2.816934265716869e-01 2.026430494915506e-01 5.419282929050812e-02 -1.480308242593966e-02 4.746501787235551e-02 -1.921888195887875e-02
464613010.8423686624 4.622492478234785e-02 -2.452661924058239e-03 5.260585300838527e-02 -7.644582904325552e-03 -2.478918622907172e-01 2.459658411351652e-01 -3.974833746122771e-01 -3.215101789684053e-01
            5.259335685159160e-02 -7.690215667446582e-03 4.623147455364640e-02 -2.533647671792165e-03 -3.974505484567238e-01 -3.215099101750544e-01 -2.479230153109693e-01 2.459384355648085e-01
            -2.479685599617623e-01 2.459641286169827e-01 -3.975521864667497e-01 -3.215958628548746e-01 4.319405297104783e-02 -7.812802655965000e-03 5.048501128667736e-02 -4.543364787564784e-03
            -3.974953205459298e-01 -3.215530806308328e-01 -2.479290510872736e-01 2.459341414798905e-01 5.042310200560478e-02 -4.491404176422790e-03 4.318722858090845e-02 -7.882850936902693e-03
465112593.8281901479 4.590697313331468e-02 9.110316378712209e-03 5.181495116521449e-02 3.224141410411828e-03 -2.071375113898069e-01 2.837854128411652e-01 -4.417689107797063e-01 -2.539457894869833e-01
            5.178310444801995e-02 3.227504924999656e-03 4.594282111312607e-02 9.066382765790483e-03 -4.418662436221286e-01 -2.539145697201506e-01 -2.071642238750264e-01 2.837078240161868e-01
            -2.070475849437310e-01 2.837846834041876e-01 -4.418836819824624e-01 -2.539411518754077e-01 4.268677035482572e-02 4.366928519032210e-03 5.026955909662967e-02 6.447372458268352e-03
            -4.418635916974820e-01 -2.538622824715673e-01 -2.071184065988274e-01 2.837655976363782e-01 5.022526635945661e-02 6.488243819326620e-03 4.274903083912417e-02 4.317021116699268e-03
465612176.8140116930 4.935459579459778e-02 2.005821375510191e-02 5.469162873409731e-02 1.373989080307360e-02 -1.601314750123478e-01 3.146478403619081e-01 -4.745410512893380e-01 -1.805548828813948e-01
            5.459589895729212e-02 1.373435615616895e-02 4.939598403689788e-02 2.017717726094340e-02 -4.745334806868607e-01 -1.805526057155369e-01 -1.602147588219305e-01 3.146186274074769e-01
            -1.602152195600762e-01 3.145610133650894e-01 -4.745356840870222e-01 -1.805281804636605e-01 4.598989263341680e-02 1.603499249129652e-02 5.361899888238906e-02 1.693009820460132e-02
            -4.744936916651898e-01 -1.804642845581338e-01 -1.601291731567838e-01 3.145754658902483e-01 5.361735718946585e-02 1.696129580729535e-02 4.607455188426086e-02 1.598975284325296e-02
466111759.7998331785 5.610171205096912e-02 2.954028503081309e-02 6.064023892760449e-02 2.275759779416557e-02 -1.083585770558068e-01 3.375092979500677e-01 -4.947740067747718e-01 -1.034779292898125e-01
            6.067680284757353e-02 2.272320210511301e-02 5.602974832222390e-02 2.956339024073067e-02 -4.948801732294782e-01 -1.034407379890032e-01 -1.083657560109804e-01 3.374755220788572e-01
            -1.084232259816382e-01 3.374494774738724e-01 -4.948188656640801e-01 -1.034435106028749e-01 5.290811519175861e-02 2.599224059436211e-02 6.024400359425613e-02 2.570658521271746e-02
            -4.948267050637922e-01 -1.034861150323144e-01 -1.083689166721267e-01 3.374586381382582e-01 6.024259161624067e-02 2.579500519495328e-02 5.283055850323701e-02 2.592276388512232e-02
466611342.7856547236 6.535464539197249e-02 3.642037118176563e-02 6.927531264021253e-02 2.932334370780431e-02 -5.342207557372464e-02 3.514111661216078e-01 -5.026992216204301e-01 -2.478160895826843e-02
            6.923809832407309e-02 2.940903984964869e-02 6.544947119985015e-02 3.649324108325015e-02 -5.026457350332599e-01 -2.492030526769176e-02 -5.340621588537108e-02 3.513706251138447e-01
            -5.338624253990307e-02 3.513767712561647e-01 -5.026958105304000e-01 -2.494170576529177e-02 6.225020564816790e-02 3.328231997224477e-02 6.916375941178055e-02 3.196379993976400e-02
            -5.027435417908552e-01 -2.482239574396083e-02 -5.340961909071112e-02 3.513533859640618e-01 6.920627231410632e-02 3.197448269802915e-02 6.229978325724882e-02 3.329219826933265e-02
467110925.7714762688 7.632678394641321e-02 4.011339146569757e-02 7.931163031999937e-02 3.274620142066687e-02 3.205156023978511e-03 3.559860554468617e-01 -4.983476658615438e-01 5.314714089776629e-02
            7.935548115340120e-02 3.277849678282799e-02 7.637780860909711e-02 4.004822851374566e-02 -4.983551737901896e-01 5.318627285374414e-02 3.201838615078640e-03 3.559809579745301e-01
            3.224064827234102e-03 3.560555295959881e-01 -4.983451414276353e-01 5.315130424050232e-02 7.351977582483774e-02 3.721573092903754e-02 7.973845042531044e-02 3.506367139184526e-02
            -4.983104651083459e-01 5.314769040818045e-02 3.271615856283567e-03 3.559610488404877e-01 7.975697619107590e-02 3.500083168010397e-02 7.356324112545462e-02 3.726482554649396e-02
467610508.7572977543 8.772543061862333e-02 4.004565226570571e-02 9.002414453029570e-02 3.289267661178758e-02 5.969690181427535e-02 3.512910235680826e-01 -4.821952839229170e-01 1.290027390381447e-01
            9.002356812885255e-02 3.288210181116416e-02 8.776125141759628e-02 4.008800703583209e-02 -4.822487437960797e-01 1.289993028383951e-01 5.962025571898266e-02 3.512452111276437e-01
            5.960407560087832e-02 3.512851534635497e-01 -4.821683418179189e-01 1.289984125308225e-01 8.520231219989674e-02 3.759941446650641e-02 9.057610721845709e-02 3.463314189893338e-02
            -4.822098794564075e-01 1.289362785278010e-01 5.969797830298924e-02 3.512660068598586e-01 9.062651065571312e-02 3.463649783346547e-02 8.519801085923305e-02 3.755819778657173e-02
468110091.7431192994 9.861136663757665e-02 3.667862238699122e-02 1.001032061698729e-01 2.960654499038943e-02 1.143482317736882e-01 3.374433879459365e-01 -4.550133147823565e-01 2.009706660281059e-01
            1.001396737649739e-01 2.957772117550857e-02 9.859576577306471e-02 3.666018872793066e-02 -4.549814365363483e-01 2.010341851251173e-01 1.142987612421952e-01 3.375246680983537e-01
            1.143972870991031e-01 3.374369169268366e-01 -4.550146934042372e-01 2.009428435365220e-01 9.635087112470242e-02 3.422496651142961e-02 1.007070902340265e-01 3.084651882052587e-02
            -4.549676800410591e-01 2.009005527243521e-01 1.143664201059798e-01 3.374263368188212e-01 1.007109246808505e-01 3.087872482984191e-02 9.642178196370055e-02 3.435136984518710e-02
468609674.7289407849 1.078174750757709e-01 3.014094432438336e-02 1.086338323335979e-01 2.336682439302706e-02 1.657969450139833e-01 3.152520463574316e-01 -4.176165144055379e-01 2.677333488987546e-01
            1.087057267286005e-01 2.338646675744632e-02 1.077533180072010e-01 3.016293803529927e-02 -4.175348633443544e-01 2.676706504709007e-01 1.657654202368289e-01 3.151974024898871e-01
            1.657601489471705e-01 3.151820426512428e-01 -4.176190365172708e-01 2.676437341557602e-01 1.058492241161007e-01 2.772103931783351e-02 1.091362793671290e-01 2.432467507883133e-02
            -4.175366258291033e-01 2.676005272349724e-01 1.657407028892809e-01 3.152565239181187e-01 1.091922417032092e-01 2.427106957927170e-02 1.058968569371541e-01 2.782437945505074e-02
469109257.7147623301 1.144686454536343e-01 2.129298459724932e-02 1.147852467433639e-01 1.481130602551797e-02 2.127403546278613e-01 2.854138800812958e-01 -3.708005912257114e-01 3.279044086616099e-01
            1.148140928135992e-01 1.478545838358481e-02 1.144359226267545e-01 2.128699727827752e-02 -3.707281435276369e-01 3.279414388780383e-01 2.127096007438593e-01 2.854149714097286e-01
            2.126913130976330e-01 2.854527017574048e-01 -3.708423518869159e-01 3.280680922953129e-01 1.129481819090221e-01 1.877693733326238e-02 1.152455608402262e-01 1.533625049670544e-02
            -3.707429458236146e-01 3.279225761289394e-01 2.127458063711622e-01 2.855143547733665e-01 1.151738899817530e-01 1.540452630319952e-02 1.129497271384781e-01 1.890023183994881e-02
469608840.7005838156 1.182589309390508e-01 1.075884634549055e-02 1.181313117577804e-01 4.750199543721612e-03 2.543075539563188e-01 2.490474048604575e-01 -3.157263688049863e-01 3.805461921926814e-01
            1.181723405882612e-01 4.731761064869632e-03 1.182267455021844e-01 1.076916173330995e-02 -3.156150631420751e-01 3.804903133662798e-01 2.542533479067596e-01 2.490187465121174e-01
            2.542822936718005e-01 2.490533150946939e-01 -3.156030707715852e-01 3.804589880857928e-01 1.169225180477789e-01 8.248339574090369e-03 1.182367323721592e-01 5.131642171630815e-03
            -3.156992608273009e-01 3.804456675297728e-01 2.542638302994311e-01 2.490791878722173e-01 1.182453203017158e-01 5.185677468987984e-03 1.168571989635767e-01 8.284360728093137e-03
470108423.6864053607 1.185942329301487e-01 -3.668826385650324e-04 1.182422582540056e-01 -5.839243455378612e-03 2.897096945079459e-01 2.070651181618013e-01 -2.532510436806006e-01 4.242900261371280e-01
            1.182761109820216e-01 -5.725931615626925e-03 1.185837895893623e-01 -3.286545188384314e-04 -2.532127482209874e-01 4.242238155188621e-01 2.896356852852691e-01 2.070933677560304e-01
            2.896905843168830e-01 2.069543189328832e-01 -2.532852071631927e-01 4.242652359248681e-01 1.173453766925143e-01 -3.029217771713319e-03 1.180490412126592e-01 -5.470531824968915e-03
            -2.531015813303670e-01 4.242597114551909e-01 2.896834347424507e-01 2.071200645172166e-01 1.179956292295943e-01 -5.536688474692252e-03 1.174719892324201e-01 -3.006268181952879e-03
470608006.6722268462 1.155616110601081e-01 -1.100104586349188e-02 1.150563665356067e-01 -1.586340604241200e-02 3.182047932406411e-01 1.603962442470914e-01 -1.846897785931459e-01 4.582834375920792e-01
            1.150751773186002e-01 -1.595787993066599e-02 1.155661288211435e-01 -1.086617784581522e-02 -1.847353725867154e-01 4.582283894502078e-01 3.182867964380315e-01 1.604583477164319e-01
            3.183085578156836e-01 1.604615616145403e-01 -1.847138975595634e-01 4.583250245092428e-01 1.144252708123255e-01 -1.390972812652384e-02 1.146288841717927e-01 -1.583690609659536e-02
            -1.847197450599816e-01 4.582440110543585e-01 3.182979703411301e-01 1.603884570456515e-01 1.146584400711755e-01 -1.576802379414736e-02 1.144760708930624e-01 -1.385079672101834e-02
471107589.6580483913 1.094440591035663e-01 -2.019359010275480e-02 1.089962770986262e-01 -2.472024547009401e-02 3.397265163723983e-01 1.102170600280660e-01 -1.114190340582317e-01 4.814523215904902e-01
            1.090508461815543e-01 -2.472151785960878e-02 1.094278439333344e-01 -2.014621071356676e-02 -1.114182113194115e-01 4.814850321269865e-01 3.397129045983932e-01 1.101524079404335e-01
            3.397271465834654e-01 1.101993111613882e-01 -1.114327201034154e-01 4.814815218130761e-01 1.083710587281732e-01 -2.333746913209801e-02 1.081919039398320e-01 -2.445625290895689e-02
            -1.114897213220585e-01 4.814728832107962e-01 3.397471909339603e-01 1.102066599759138e-01 1.082033438507565e-01 -2.435576399684300e-02 1.084143377815857e-01 -2.339977447482518e-02
471607172.6438698769 1.007138870745214e-01 -2.701420958123440e-02 1.004041429771191e-01 -3.125309158213868e-02 3.536649905062657e-01 5.720385711005977e-02 -3.511414996507849e-02 4.931478904113063e-01
            1.004301124463044e-01 -3.126893726557065e-02 1.007419162698669e-01 -2.701294061400333e-02 -3.515717284497268e-02 4.932110442687849e-01 3.536405708002778e-01 5.717872594647407e-02
            3.536107909147794e-01 5.724229876169552e-02 -3.510401228307588e-02 4.932117021797122e-01 9.959429653121583e-02 -3.050548028278989e-02 9.943982041907128e-02 -3.075221739565936e-02
            -3.515557414945156e-02 4.931941017594082e-01 3.536805115513100e-01 5.719527300679192e-02 9.939858279991649e-02 -3.072045985911142e-02 9.962940159744503e-02 -3.044742300802808e-02
472106755.6296914220 9.027585393878164e-02 -3.091922548553087e-02 9.018656930573800e-02 -3.490150523878360e-02 3.596293974379258e-01 2.515359418090846e-03 4.253581267355595e-02 4.928783750967724e-01
            9.023540474704447e-02 -3.484253817967659e-02 9.029958334375780e-02 -3.085535745155242e-02 4.245051913884938e-02 4.927611322504114e-01 3.596866742608211e-01 2.579456785029986e-03
            3.597675197025299e-01 2.483359560999348e-03 4.255694056609265e-02 4.928350511827008e-01 8.905682189620051e-02 -3.451422137433997e-02 8.899398293492561e-02 -3.402649515006451e-02
            4.257569609709104e-02 4.927913523992778e-01 3.597443862645190e-01 2.607508678592440e-03 8.900374812786456e-02 -3.404818022317418e-02 8.907807188491663e-02 -3.454771995771867e-02
472606338.6155129075 7.914642175426985e-02 -3.136846447329288e-02 7.932219900958050e-02 -3.516823128207835e-02 3.576398135639348e-01 -5.291475852710919e-02 1.194813370124888e-01 4.799537864720664e-01
            7.934769730763865e-02 -3.517860196109412e-02 7.916254781648288e-02 -3.135282254194921e-02 1.194233885227012e-01 4.799610704665667e-01 3.576355730176889e-01 -5.293265524595902e-02
            3.576690769297263e-01 -5.296065991792494e-02 1.194640417458152e-01 4.799797912821526e-01 7.767352601231144e-02 -3.518969428554413e-02 7.809362825827910e-02 -3.394324659035099e-02
            1.194645450491066e-01 4.800264276105545e-01 3.576346521267326e-01 -5.289204687322793e-02 7.808941263440090e-02 -3.395773518932669e-02 7.762921304324200e-02 -3.523418578393073e-02
473105921.6013344526 6.835164199056290e-02 -2.837900881528927e-02 6.873300355183501e-02 -3.208276130916471e-02 3.472009241664334e-01 -1.079910516896446e-01 1.936230743615319e-01 4.550114071412203e-01
            6.864859155117709e-02 -3.200703420238884e-02 6.828611336310653e-02 -2.832289084298133e-02 1.936348385836643e-01 4.549238162183644e-01 3.472064697714333e-01 -1.081256340841375e-01
            3.472424965582251e-01 -1.080881261179523e-01 1.936314792998312e-01 4.549361648089621e-01 6.674563440980195e-02 -3.222865156972920e-02 6.764261593738506e-02 -3.054385272526470e-02
            1.936599366617034e-01 4.548853380667985e-01 3.471008935193034e-01 -1.080974468872934e-01 6.773930243288327e-02 -3.051608816534297e-02 6.667769413164967e-02 -3.219285693587456e-02
473605504.5871559978 5.890891194983944e-02 -2.190909736743807e-02 5.962964803512912e-02 -2.566804279483349e-02 3.282221565219856e-01 -1.616457139860853e-01 2.629511579687873e-01 4.180165329032745e-01
            5.964636197113093e-02 -2.570061030133676e-02 5.892610265045220e-02 -2.187928375291458e-02 2.629059755615120e-01 4.180463770823600e-01 3.282116189837571e-01 -1.616029020855667e-01
            3.282142832136872e-01 -1.616263602797897e-01 2.628902163631786e-01 4.180154338127548e-01 5.710039806302742e-02 -2.590923311089215e-02 5.881425600802161e-02 -2.389943517756942e-02
            2.628802650172560e-01 4.181314142237924e-01 3.281942233066784e-01 -1.616288719609490e-01 5.883919470806305e-02 -2.383027429923798e-02 5.712650812962516e-02 -2.584929498321029e-02
474105087.5729774833 5.205389708335507e-02 -1.284955921281501e-02 5.296513845880021e-02 -1.681277085893977e-02 3.007921196476085e-01 -2.122198608067111e-01 3.250491544921778e-01 3.704094551008832e-01
            5.294990950162232e-02 -1.680127150191955e-02 5.208305900768619e-02 -1.290483277558380e-02 3.251211180906154e-01 3.703912204678358e-01 3.007565338312150e-01 -2.122091859172993e-01
            3.008096751853865e-01 -2.122083098548501e-01 3.250853561549412e-01 3.704201196490731e-01 5.000682326185263e-02 -1.673049646817227e-02 5.251017271931858e-02 -1.475067592362957e-02
            3.250594792500774e-01 3.704613116588932e-01 3.008791246331583e-01 -2.122112948365435e-01 5.248696592187480e-02 -1.478614233047791e-02 5.004339480818683e-02 -1.676522120319080e-02
474604670.5587990284 4.838019394801512e-02 -1.986082947886646e-03 4.944911257238334e-02 -6.236464719774747e-03 2.652224715607041e-01 -2.584173809217676e-01 3.786157414164303e-01 3.133393745039327e-01
            4.945071634243620e-02 -6.295650509833803e-03 4.848356690153996e-02 -1.987371229546973e-03 3.784868901183847e-01 3.134789282813090e-01 2.652032794260888e-01 -2.583977644178168e-01
            2.652297071521046e-01 -2.584051596531677e-01 3.785518818984123e-01 3.134007597739218e-01 4.622502959077694e-02 -5.943545587343010e-03 4.945315986360852e-02 -4.005631095770540e-03
            3.784740886548313e-01 3.135340648985163e-01 2.651778792637893e-01 -2.583862274939137e-01 4.950807537398939e-02 -4.055798831264342e-03 4.629387468095222e-02 -5.866804437066388e-03
475104253.5446205139 4.846688209612295e-02 9.412768659455754e-03 4.942673721666610e-02 4.904536622666517e-03 2.221896524156144e-01 -2.986542994134151e-01 4.217261140915739e-01 2.488083517977349e-01
            4.951915703362685e-02 4.866748182238301e-03 4.844224027878554e-02 9.404725680987007e-03 4.217516108143086e-01 2.488554261177504e-01 2.222272103349055e-01 -2.986561851869795e-01
            2.221744816721577e-01 -2.986934163383251e-01 4.218104800715219e-01 2.488005580611454e-01 4.610335732991188e-02 5.662872866945226e-03 4.991074670348245e-02 7.098063864205704e-03
            4.217522544541441e-01 2.489069511167019e-01 2.221687783370495e-01 -2.986043739428471e-01 4.997837740701517e-02 7.078855630637663e-03 4.614990972108235e-02 5.601966675535652e-03
475603836.5304420590 5.212293586340620e-02 2.029540938912511e-02 5.303554814028323e-02 1.534383731389645e-02 1.725925301618430e-01 -3.315753994426233e-01 4.538101842555342e-01 1.786167318361856e-01
            5.302297089603769e-02 1.529168690394636e-02 5.206534783564166e-02 2.028246479289082e-02 4.538228515427046e-01 1.785617061243864e-01 1.726738888046557e-01 -3.315943392667486e-01
            1.727073327853092e-01 -3.316417740972881e-01 4.538029995269809e-01 1.786030504223009e-01 4.967418998208497e-02 1.659407890046136e-02 5.408647933441759e-02 1.739277607852319e-02
            4.538658932391783e-01 1.786178049881102e-01 1.726380571409704e-01 -3.315180290357153e-01 5.400632835646831e-02 1.747205683508743e-02 4.959454378139479e-02 1.654008415159202e-02
476103419.5162635446 5.894359722604655e-02 2.939888351937256e-02 5.961693829132240e-02 2.410308810866022e-02 1.180101061847337e-01 -3.560141252538407e-01 4.740394733603105e-01 1.049232272065277e-01
            5.972790863776192e-02 2.404495679494829e-02 5.899668502039147e-02 2.937601354333275e-02 4.740204825184199e-01 1.049514060146260e-01 1.180842741440065e-01 -3.559807805047798e-01
            1.181174158770466e-01 -3.559801072953346e-01 4.741056639980251e-01 1.048370358976954e-01 5.639950162374130e-02 2.579252376792256e-02 6.109335196790970e-02 2.592162730428114e-02
            4.740148329374674e-01 1.048339333829905e-01 1.179996767915142e-01 -3.560257007202398e-01 6.114391118167304e-02 2.592468016595773e-02 5.645462048553515e-02 2.578881643823582e-02
476603002.5020850897 6.827453576408828e-02 3.580052899101600e-02 6.868698721795677e-02 3.017543215412243e-02 6.004957298545248e-02 -3.710821108962536e-01 4.823543473483499e-01 2.961455561429379e-02
            6.872562755365150e-02 3.022104225695186e-02 6.827067206756615e-02 3.579764578341370e-02 4.823477441350653e-01 2.966023230879123e-02 6.007780056357998e-02 -3.710498766151303e-01
            6.011067647406117e-02 -3.710309308883495e-01 4.823401366163033e-01 2.964833914000567e-02 6.574104822595332e-02 3.218254059922215e-02 7.066786257621203e-02 3.162448548011731e-02
            4.823293875471853e-01 2.966346476474719e-02 6.003673646562672e-02 -3.710727823540471e-01 7.058367000161032e-02 3.166553785946336e-02 6.580515046710116e-02 3.218275941418769e-02
477102585.4879065752 7.908069584607424e-02 3.899877187282130e-02 7.913886198730957e-02 3.326667600083685e-02 3.923844969303740e-04 -3.763865590303773e-01 4.789963491497816e-01 -4.534389441702256e-02
            7.902520998828569e-02 3.323518916994261e-02 7.912317266619155e-02 3.896867532152166e-02 4.790509168021479e-01 -4.532277573249587e-02 4.244580713462694e-04 -3.763820450923005e-01
            3.757757952414384e-04 -3.763576671127717e-01 4.790244464376492e-01 -4.538239037384106e-02 7.650125564788944e-02 3.552319621124638e-02 8.123951697278520e-02 3.402374878645355e-02
            4.789948121169945e-01 -4.522729794424291e-02 4.157990290809585e-04 -3.763683048014720e-01 8.125209398222703e-02 3.404103267939632e-02 7.658927838216423e-02 3.541949672880976e-02
477602168.4737281203 9.028253242963959e-02 3.869000976537641e-02 8.973496497902420e-02 3.283201741547977e-02 -5.909496960850779e-02 -3.719098916727503e-01 4.643946266954793e-01 -1.181062539163347e-01
            8.977059426908839e-02 3.279992954947195e-02 9.020785448529609e-02 3.869941570897033e-02 4.643827923439213e-01 -1.181888299197930e-01 -5.912411085228016e-02 -3.719032443802766e-01
            -5.910207691404253e-02 -3.718300310102073e-01 4.643998516888594e-01 -1.181525847349225e-01 8.763832560614898e-02 3.511510498299578e-02 9.205145847480203e-02 3.299399962303529e-02
            4.643832654245723e-01 -1.181416588650048e-01 -5.911397038537722e-02 -3.718624185584220e-01 9.208575825958076e-02 3.295626382606403e-02 8.769236890284521e-02 3.512972112877439e-02
478101751.4595496058 1.007844274569986e-01 3.500530168813404e-02 9.968848145602244e-02 2.911657007819572e-02 -1.169207710779886e-01 -3.578636449164446e-01 4.392353462896412e-01 -1.875236799626414e-01
            9.973711957448186e-02 2.906939967254017e-02 1.007179201843779e-01 3.493152070894944e-02 4.391306065922527e-01 -1.875573395050610e-01 -1.169594566412458e-01 -3.579375911011719e-01
            -1.169768648765317e-01 -3.579626225167348e-01 4.390984356861508e-01 -1.875751119717892e-01 9.808561458756770e-02 3.139076140149272e-02 1.020276843092654e-01 2.867614176607633e-02
            4.391109615759513e-01 -1.874546056920924e-01 -1.169079259102954e-01 -3.579073109605455e-01 1.019993393316377e-01 2.853575042791770e-02 9.803512140874815e-02 3.139150010060836e-02
478601334.4453711510 1.094187691948829e-01 2.832100937285963e-02 1.079713071130911e-01 2.260381325808946e-02 -1.713763979321296e-01 -3.350250951426977e-01 4.040083977256699e-01 -2.520407070518494e-01
            1.079607246187168e-01 2.252619877295088e-02 1.094212540312739e-01 2.816375827939418e-02 4.040194720377429e-01 -2.521215149774201e-01 -1.713754143149743e-01 -3.350819440491204e-01
            -1.713599604445719e-01 -3.350610080299805e-01 4.039976113964421e-01 -2.520283368318283e-01 1.067918694164083e-01 2.457042575340025e-02 1.100126330504453e-01 2.145207279647196e-02
            4.040115606219985e-01 -2.519526695205802e-01 -1.713602206247771e-01 -3.350166550138187e-01 1.101001851052810e-01 2.140018556975915e-02 1.067157444864528e-01 2.460287144939783e-02
479100917.4311926961 1.156943317680195e-01 1.937431007887631e-02 1.137153874507793e-01 1.388341194081805e-02 -2.212968904734666e-01 -3.042256298014137e-01 3.598607623706034e-01 -3.104178090592027e-01
            1.136929422678028e-01 1.394959708262298e-02 1.156483305810133e-01 1.926716378054650e-02 3.598555887639288e-01 -3.104023521465601e-01 -2.212418587579952e-01 -3.041884176073056e-01
            -2.212238723206876e-01 -3.042023186294843e-01 3.598151010880262e-01 -3.104141499028473e-01 1.128606453623563e-01 1.559108200045079e-02 1.154884671341828e-01 1.210843163930824e-02
            3.598585701570969e-01 -3.104119788089747e-01 -2.212694646738005e-01 -3.042314105960005e-01 1.153983396637574e-01 1.214015650203592e-02 1.129132167765100e-01 1.562000462789227e-02
479600500.4170141816 1.189228009576665e-01 8.968726678636917e-03 1.165179607847935e-01 3.796468769669264e-03 -2.655365389943771e-01 -2.663025971202084e-01 3.076003632338175e-01 -3.614619712433629e-01
            1.165147034928913e-01 3.935351946459339e-03 1.188761229382608e-01 9.000867854498705e-03 3.075139863467765e-01 -3.615737713645245e-01 -2.656189364746667e-01 -2.664511481365672e-01
            -2.656302644101912e-01 -2.663654168825232e-01 3.075673228231461e-01 -3.614995362512711e-01 1.159148460768323e-01 5.077859673344287e-03 1.177150772658344e-01 1.655481500835511e-03
            3.075656601865096e-01 -3.616112958645107e-01 -2.654781467158895e-01 -2.663264422262140e-01 1.176926746097313e-01 1.605008705002449e-03 1.159033509442033e-01 5.170505174124539e-03
480100083.4028357267 1.188092411038642e-01 -1.773162174994073e-03 1.160854214257574e-01 -6.458053228937640e-03 -3.034879469291246e-01 -2.224797381386271e-01 2.480360813559250e-01 -4.043131668795246e-01
            1.161550393616462e-01 -6.437205956881973e-03 1.188097593875639e-01 -1.757259890546310e-03 2.480749951897137e-01 -4.043812914271821e-01 -3.034850318549838e-01 -2.224399100805422e-01
            -3.035117321443003e-01 -2.225213467202739e-01 2.480177242210213e-01 -4.044007361870959e-01 1.156081871374891e-01 -5.655440525050636e-03 1.166489762571010e-01 -9.146482978368909e-03
            2.481065957934376e-01 -4.043710348490308e-01 -3.034537671648689e-01 -2.225118896653925e-01 1.166071013971224e-01 -9.192329502544694e-03 1.156923494001965e-01 -5.718185440284062e-03
480599666.3886572123 1.155211702684236e-01 -1.205048783899239e-02 1.125267236430804e-01 -1.619284546263683e-02 -3.343766797678647e-01 -1.735445853313610e-01 1.825888700810870e-01 -4.378500169513480e-01
            1.125675731402635e-01 -1.609520923276896e-02 1.154063553320034e-01 -1.197057675224431e-02 1.825554459290459e-01 -4.378262540675973e-01 -3.343828600616343e-01 -1.735263083216766e-01
            -3.344105983345046e-01 -1.735360889236104e-01 1.825382613639116e-01 -4.377918943989597e-01 1.120447977190785e-01 -1.591154055875313e-02 1.124264171452238e-01 -1.907291271402210e-02
            1.824622282853587e-01 -4.378931715621146e-01 -3.344173997886737e-01 -1.736109385387009e-01 1.123775670377555e-01 -1.905560789524190e-02 1.120492668091490e-01 -1.592558361607873e-02
481099249.3744787574 1.091010960621944e-01 -2.072063786714127e-02 1.060969636833763e-01 -2.438544576481584e-02 -3.577321457992331e-01 -1.206331675452966e-01 1.123990905577315e-01 -4.610573700737631e-01
            1.061509479799830e-01 -2.429786195013780e-02 1.091325876286404e-01 -2.070308546072369e-02 1.123813804301118e-01 -4.610544010817358e-01 -3.576967464363673e-01 -1.206319565431828e-01
            -3.577465683944446e-01 -1.205851275924704e-01 1.123388142933153e-01 -4.610241881726573e-01 1.054424889863899e-01 -2.457581615992548e-02 1.051753020468163e-01 -2.732611064977564e-02
            1.123892609570166e-01 -4.609533497277701e-01 -3.577595691715963e-01 -1.206579418461017e-01 1.051597134315032e-01 -2.730258428977099e-02 1.053680629132397e-01 -2.466572350547160e-02
481598832.3603002429 1.004682214583973e-01 -2.701995824316224e-02 9.749747279181042e-02 -3.017749889886645e-02 -3.731021774264370e-01 -6.472810762944999e-02 3.902019459942412e-02 -4.730536361357628e-01
            9.753558666777989e-02 -3.009400782931827e-02 1.004205302847389e-01 -2.700812675896782e-02 3.912118669565234e-02 -4.730383489951527e-01 -3.731617490265773e-01 -6.471561426832730e-02
            -3.732025031505384e-01 -6.476034409901711e-02 3.904792038206253e-02 -4.731104359999889e-01 9.641585492661008e-02 -3.096209298951538e-02 9.573505790488908e-02 -3.299485891672068e-02
            3.903336664188753e-02 -4.730175166288855e-01 -3.731187224753982e-01 -6.470597365114426e-02 9.585417829484365e-02 -3.298474044821278e-02 9.636488588138076e-02 -3.092404545354629e-02
482098415.3461217880 9.012219823039996e-02 -3.029649719086266e-02 8.747266520626232e-02 -3.309490342118759e-02 -3.802695923916958e-01 -6.787633645554883e-03 -3.554205829985153e-02 -4.733157868133592e-01
            8.746610121281194e-02 -3.295750046611793e-02 9.012341977385713e-02 -3.029995120573649e-02 -3.561947783732100e-02 -4.733401466914376e-01 -3.802462177480870e-01 -6.856465568001204e-03
            -3.802374369648029e-01 -6.768460879382467e-03 -3.550851741761739e-02 -4.733783602384030e-01 8.573587244352694e-02 -3.411968526493777e-02 8.500871729318667e-02 -3.553731928686336e-02
            -3.549239191738551e-02 -4.733421108637387e-01 -3.802784120874466e-01 -6.818556050517227e-03 8.492999304402205e-02 -3.556434880850302e-02 8.572246413524497e-02 -3.410369748639873e-02
482597998.3319432735 7.935295445998518e-02 -3.021127115674570e-02 7.687671981017856e-02 -3.252051797497367e-02 -3.786127195789332e-01 5.200303276088108e-02 -1.096330324017041e-01 -4.617724021190842e-01
            7.688303547919617e-02 -3.248556820129375e-02 7.935695884675104e-02 -3.022056406836665e-02 -1.096501947968265e-01 -4.616982118090482e-01 -3.785828887087254e-01 5.196743659834346e-02
            -3.786280085650329e-01 5.196386516609137e-02 -1.096090471396593e-01 -4.617175773503254e-01 7.463832030128802e-02 -3.378384037303348e-02 7.384364354473825e-02 -3.467455467995971e-02
            -1.096681405514383e-01 -4.617171812463630e-01 -3.785996189047979e-01 5.192076659314826e-02 7.380549195648120e-02 -3.457557314448461e-02 7.454184963322252e-02 -3.380330403256591e-02
483097581.3177648187 6.910856145828058e-02 -2.673184787879715e-02 6.689595769457599e-02 -2.871807276698775e-02 -3.679687283126053e-01 1.104606404537481e-01 -1.811194270113319e-01 -4.381758813966082e-01
            6.695295663246806e-02 -2.870691402675191e-02 6.910731561834342e-02 -2.671885160731438e-02 -1.811116948900891e-01 -4.381680231779548e-01 -3.679277575264975e-01 1.104662383450618e-01
            -3.679782989612894e-01 1.104259210674561e-01 -1.810922367609061e-01 -4.382047923382756e-01 6.395334909375533e-02 -3.002679205123740e-02 6.338684647635427e-02 -3.025976461065658e-02
            -1.811189941528232e-01 -4.381643009043614e-01 -3.679361379335869e-01 1.104264490544148e-01 6.341353800501895e-02 -3.016571759272817e-02 6.401389680117789e-02 -3.001232659776861e-02
483597164.3035863042 6.048321755480727e-02 -2.004142161430309e-02 5.861340320579127e-02 -2.190243328421743e-02 -3.482440553620215e-01 1.672815189521012e-01 -2.477766470479916e-01 -4.033291408741007e-01
            5.860974799394629e-02 -2.182217161554685e-02 6.053779382458226e-02 -2.006854978538302e-02 -2.477893498213337e-01 -4.034060911141700e-01 -3.482665889302549e-01 1.673006001916857e-01
            -3.482620823360907e-01 1.673853605418678e-01 -2.476903835273360e-01 -4.033754335150812e-01 5.506243288675381e-02 -2.301868233299908e-02 5.470135752336425e-02 -2.270080323019016e-02
            -2.477910255685831e-01 -4.033837912743315e-01 -3.482923415747951e-01 1.673506211143143e-01 5.468425995811640e-02 -2.266322753476752e-02 5.510816930605832e-02 -2.296488537474207e-02
484096747.2894078493 5.452464213514334e-02 -1.094748048853266e-02 5.300204871257842e-02 -1.273417343996854e-02 -3.195776013088382e-01 2.210661595194795e-01 -3.077356285155602e-01 -3.580966769698541e-01
            5.291665664753435e-02 -1.266269488289832e-02 5.447685841931015e-02 -1.101466990433405e-02 -3.077948748811668e-01 -3.581289773178489e-01 -3.195773838190075e-01 2.209985430046771e-01
            -3.195229430453725e-01 2.210013601462490e-01 -3.077488750644987e-01 -3.581589496090728e-01 4.883749986376794e-02 -1.338418616809261e-02 4.895017711641821e-02 -1.276636589641782e-02
            -3.077153820652896e-01 -3.580378488919373e-01 -3.195490301043211e-01 2.210781853934889e-01 4.887708012686037e-02 -1.281510792455684e-02 4.875110779434394e-02 -1.345064651305377e-02
484596330.2752293944 5.162807913101435e-02 -3.552035091861314e-04 5.058844592962063e-02 -2.147787352624303e-03 -2.821566051788252e-01 2.699633738536103e-01 -3.593425039320144e-01 -3.038834940068502e-01
            5.054020306309039e-02 -2.188434516665292e-03 5.166438462895210e-02 -2.927753797626697e-04 -3.593827587139740e-01 -3.038869155519185e-01 -2.821523061145134e-01 2.700197480874557e-01
            -2.821729518842986e-01 2.700207575172235e-01 -3.593727587169080e-01 -3.038663000904662e-01 4.588897420407048e-02 -2.251324626671616e-03 4.646810199066391e-02 -1.429022300000588e-03
            -3.593270071889234e-01 -3.039124512387980e-01 -2.820930100385364e-01 2.699606240261918e-01 4.644196070875901e-02 -1.411788841170663e-03 4.589422168578676e-02 -2.284613982304021e-03
485095913.2610508800 5.231407386814450e-02 1.044836858822739e-02 5.154624048314464e-02 8.643601061517073e-03 -2.370223297011602e-01 3.126881270343806e-01 -4.011352729148283e-01 -2.424865197577984e-01
            5.156420446140923e-02 8.705933680276596e-03 5.234964863887254e-02 1.051743053605859e-02 -4.011744533982844e-01 -2.424474852619605e-01 -2.369209918435634e-01 3.126565445593963e-01
            -2.369435738354827e-01 3.126334307479813e-01 -4.012047495797868e-01 -2.423730876881848e-01 4.668824068478927e-02 9.115579489956130e-03 4.767738011027464e-02 1.004450328899835e-02
            -4.011834933779270e-01 -2.423353168928062e-01 -2.370285474608850e-01 3.126456076603611e-01 4.772641895473281e-02 1.001391645143881e-02 4.672114075809630e-02 9.223858139963827e-03
485595496.2468724251 5.658563870926412e-02 2.064359960997368e-02 5.599784887979094e-02 1.854449269356233e-02 -1.849749678804520e-01 3.476172339633101e-01 -4.322934811539882e-01 -1.755063032595342e-01
            5.602300878827005e-02 1.862708699619434e-02 5.655083393243826e-02 2.067042326271979e-02 -4.322377966253629e-01 -1.755555988991843e-01 -1.849480323831680e-01 3.476110960273544e-01
            -1.849633318990332e-01 3.476040151872661e-01 -4.323003869971662e-01 -1.755916995017811e-01 5.102242303240900e-02 1.976037711006852e-02 5.264664298735237e-02 2.054294087402975e-02
            -4.322726443001188e-01 -1.755551749682476e-01 -1.850570123014761e-01 3.475961635476448e-01 5.259359090304970e-02 2.044005589721590e-02 5.102921713635638e-02 1.976934184662770e-02
486095079.2326939106 6.385084656803994e-02 2.885340850157963e-02 6.331601694738535e-02 2.653559261073115e-02 -1.277120243682758e-01 3.735088135502210e-01 -4.522513727880513e-01 -1.053284479559512e-01
            6.343889144607202e-02 2.653294528775553e-02 6.387027453964252e-02 2.884325416396899e-02 -4.522256494766919e-01 -1.053200356521170e-01 -1.276412553921078e-01 3.735859302624749e-01
            -1.276682563170719e-01 3.735460864727390e-01 -4.521543875806432e-01 -1.052667627165633e-01 5.852014066056504e-02 2.840680213712799e-02 6.040230546167549e-02 2.890042542684623e-02
            -4.522772812452729e-01 -1.053413672728231e-01 -1.277090308239966e-01 3.735995241268501e-01 6.044268067915351e-02 2.886835391269315e-02 5.858676431168150e-02 2.848651615830851e-02
486594662.2185154557 7.331276788069026e-02 3.431733946054170e-02 7.295367135260110e-02 3.178625991486685e-02 -6.685887031547155e-02 3.897497499858431e-01 -4.608094654224229e-01 -3.360511747419016e-02
            7.292873940046328e-02 3.171721255450081e-02 7.333303449460928e-02 3.430361272203337e-02 -4.608381756250901e-01 -3.363965918458858e-02 -6.687464905944447e-02 3.897491248291932e-01
            -6.684810646175675e-02 3.896560181000135e-01 -4.608581660222659e-01 -3.354104519730877e-02 6.835663617543787e-02 3.421073008323626e-02 7.044760342744476e-02 3.440687496617358e-02
            -4.607254012429372e-01 -3.354234044223010e-02 -6.684131730851184e-02 3.897417624092810e-01 7.044955891077473e-02 3.445919953242622e-02 6.827755267079996e-02 3.419864348120913e-02
487094245.2043369412 8.392518019069184e-02 3.645231581468395e-02 8.350737480512856e-02 3.367942542827766e-02 -4.271357467442954e-03 3.956401081190489e-01 -4.584088420332783e-01 3.793886732281302e-02
            8.353351911189004e-02 3.374040273328462e-02 8.382416698137575e-02 3.650071811550221e-02 -4.583471372683878e-01 3.799605907204803e-02 -4.234349889809141e-03 3.956617284854901e-01
            -4.276050632081034e-03 3.956869333770015e-01 -4.582747962770605e-01 3.792001607013205e-02 7.940656035259215e-02 3.664469280951874e-02 8.151179295930507e-02 3.643944020935407e-02
            -4.582807421119837e-01 3.799400822393732e-02 -4.150260091076654e-03 3.956889907577992e-01 8.150583788694912e-02 3.639340071096691e-02 7.939481198055613e-02 3.659345051766982e-02
487593828.1901584864 9.463690613083564e-02 3.523932774523388e-02 9.415637753240068e-02 3.228883201627513e-02 5.827640158455671e-02 3.914530274581088e-01 -4.451789204431363e-01 1.075715974546786e-01
            9.416737006342217e-02 3.228845758464410e-02 9.465388189010403e-02 3.529872982274995e-02 -4.452412778262088e-01 1.075597658609553e-01 5.822937896800869e-02 3.913510309565044e-01
            5.814455549974426e-02 3.914169323012269e-01 -4.452273619609547e-01 1.076302617537892e-01 9.053398658005499e-02 3.561312186189614e-02 9.266256129864620e-02 3.494697135281630e-02
            -4.451628646547563e-01 1.076036346808548e-01 5.821272888191867e-02 3.913037449809329e-01 9.269940263645128e-02 3.490662849521097e-02 9.055428419604986e-02 3.554984839489976e-02
488093411.1759799719 1.043092862113438e-01 3.079434164799617e-02 1.037422452044076e-01 2.768795277352153e-02 1.188533576649345e-01 3.772474157337439e-01 -4.219387589375671e-01 1.741181894692273e-01
            1.038127872765266e-01 2.771718963298159e-02 1.043933049753974e-01 3.068307954068468e-02 -4.219116164857631e-01 1.741664675317438e-01 1.188279367263184e-01 3.771947922853834e-01
            1.189167012819612e-01 3.771548031353661e-01 -4.218574018928390e-01 1.741445433928450e-01 1.008015989175469e-01 3.114287422953989e-02 1.027409853974544e-01 3.011379157654661e-02
            -4.219236418641399e-01 1.741191491457458e-01 1.188776237239627e-01 3.772246870739894e-01 1.027051156894238e-01 3.017443158617830e-02 1.008324308191376e-01 3.110831083549897e-02
488592994.1618015170 1.122499136685486e-01 2.352938465401207e-02 1.115230226300148e-01 2.027884275934886e-02 1.761486600805919e-01 3.538071206772211e-01 -3.891580515657129e-01 2.361548439294298e-01
            1.114857015126836e-01 2.030071436881224e-02 1.122894333185669e-01 2.360311996418404e-02 -3.892416619365199e-01 2.360669523264400e-01 1.761894896575544e-01 3.538092708150069e-01
            1.762222024656762e-01 3.538069003522649e-01 -3.892991018270774e-01 2.360712686996316e-01 1.091566047866788e-01 2.384056695022102e-02 1.107081739535768e-01 2.261280403441198e-02
            -3.892005984680256e-01 2.361367571340863e-01 1.761536029875833e-01 3.537180881624013e-01 1.106853745447479e-01 2.255601963775616e-02 1.091906598647311e-01 2.378410888033178e-02
489092577.1476230025 1.176107814458903e-01 1.432921132192610e-02 1.165976011313382e-01 1.098812125009957e-02 2.287639357897506e-01 3.220081488964429e-01 -3.478114656339525e-01 2.924799180296550e-01
            1.166776271759829e-01 1.113879901135996e-02 1.176294524663951e-01 1.431114209401500e-02 -3.478302327818700e-01 2.924360331953378e-01 2.287588045159217e-01 3.220025195330340e-01
            2.287891600343923e-01 3.220876131918279e-01 -3.477514044597909e-01 2.924206718424613e-01 1.148217499409730e-01 1.435752376966278e-02 1.159618055228625e-01 1.300084448303053e-02
            -3.477535984964975e-01 2.923945490882442e-01 2.287919162667001e-01 3.220535859018872e-01 1.159657964758674e-01 1.293846111163332e-02 1.148492515954654e-01 1.437633113711783e-02
489592160.1334445477 1.198301257539494e-01 3.965690523953892e-03 1.186657927698626e-01 6.762099291673344e-04 2.756501013200340e-01 2.828403321155946e-01 -2.983254237226557e-01 3.419702130747522e-01
            1.187009009740288e-01 6.397682446633714e-04 1.198570321499633e-01 3.955423631498139e-03 -2.984333357848975e-01 3.419953259668876e-01 2.756963449323085e-01 2.828741531898539e-01
            2.756369363074748e-01 2.828890458590471e-01 -2.984470529987714e-01 3.420030228234024e-01 1.173375579058508e-01 3.660849722696461e-03 1.180099251525094e-01 2.216561808191538e-03
            -2.984508162135679e-01 3.420267678274304e-01 2.757281346903944e-01 2.827737657710463e-01 1.181029843054689e-01 2.236284838243508e-03 1.173898195083652e-01 3.719949539339993e-03
490091743.1192660928 1.188538160023414e-01 -6.682595305302793e-03 1.176065922766642e-01 -9.810927429513354e-03 3.159347377829512e-01 2.372667533210160e-01 -2.420334394742671e-01 3.836356623356159e-01
            1.176004561736911e-01 -9.901549502388486e-03 1.188304159045030e-01 -6.581321134671233e-03 -2.420669663916166e-01 3.837056426550824e-01 3.159647564424219e-01 2.372803095073926e-01
            3.160475805483107e-01 2.372585263215516e-01 -2.420760181855275e-01 3.836223730117796e-01 1.165056396795159e-01 -7.296920865466770e-03 1.168709277311405e-01 -8.538655040859806e-03
            -2.420135223380593e-01 3.836968950513379e-01 3.159540615428606e-01 2.373247805114735e-01 1.168534449587762e-01 -8.580241406032054e-03 1.165724357389205e-01 -7.320602117516705e-03
490591326.1050875783 1.147535767141253e-01 -1.644714387870761e-02 1.133228887451610e-01 -1.953467559634873e-02 3.490399614763546e-01 1.863808091157585e-01 -1.797880966518064e-01 4.165941352901371e-01
            1.134187100119722e-01 -1.950975433091960e-02 1.146589209818648e-01 -1.638560595528360e-02 -1.798130565245569e-01 4.165801957370344e-01 3.490198814565084e-01 1.863129941284996e-01
            3.489989640773483e-01 1.863187370237850e-01 -1.797869143057871e-01 4.165156433764146e-01 1.124730015576738e-01 -1.750837613259896e-02 1.123220908065521e-01 -1.849844126630115e-02
            -1.797615200128834e-01 4.165792259949787e-01 3.490993470929371e-01 1.862711931722297e-01 1.122754642348254e-01 -1.853077148269365e-02 1.125178510978525e-01 -1.760047214624766e-02
491090909.0909091234 1.077129977690714e-01 -2.447041138976659e-02 1.063377333606397e-01 -2.746286585643644e-02 3.742339384858194e-01 1.310202955436026e-01 -1.128184130019992e-01 4.395114477903408e-01
            1.063610267889056e-01 -2.745056849285671e-02 1.078380953735050e-01 -2.449411516735078e-02 -1.129800178731641e-01 4.395072595286738e-01 3.742343511567051e-01 1.310561812253090e-01
            3.742508867626906e-01 1.310304874171351e-01 -1.127837195328859e-01 4.395435669270701e-01 1.054156881353280e-01 -2.611712466670282e-02 1.050089799686069e-01 -2.663783410230011e-02
            -1.128057633947826e-01 4.395072797974645e-01 3.741828946694826e-01 1.309962070131910e-01 1.049435893525131e-01 -2.659320538407512e-02 1.053738991881014e-01 -2.615880526234761e-02
491590492.0767306089 9.861920103443464e-02 -3.009646315360690e-02 9.717592341221164e-02 -3.299618981724829e-02 3.910487155048380e-01 7.248238915162739e-02 -4.277976309487170e-02 4.518622206613138e-01
            9.729287029839055e-02 -3.292887342587016e-02 9.866717735034473e-02 -3.006020639206668e-02 -4.280782300189852e-02 4.518681994120639e-01 3.910472068393823e-01 7.242998208363652e-02
            3.910195056415916e-01 7.252806102799336e-02 -4.279748876011916e-02 4.518842947109341e-01 9.590103525637088e-02 -3.211316071024194e-02 9.548793358112814e-02 -3.202367431797785e-02
            -4.281903143936765e-02 4.518553122624108e-01 3.910618497102591e-01 7.248618631587959e-02 9.546784923401558e-02 -3.197933995801771e-02 9.602208684490288e-02 -3.208047911975847e-02
492090075.0625521541 8.819040092408978e-02 -3.257197813945872e-02 8.695262589837630e-02 -3.544078169748968e-02 3.990671757280182e-01 1.168005964652575e-02 2.866541217257203e-02 4.529925849135916e-01
            8.686076568808225e-02 -3.532811642627701e-02 8.817626494185288e-02 -3.260675201069470e-02 2.868882627895766e-02 4.530193301886417e-01 3.991081736346969e-01 1.171536016451925e-02
            3.990690709831161e-01 1.165803082367150e-02 2.880810500832980e-02 4.529623870884707e-01 8.518141414464153e-02 -3.507573458997476e-02 8.459929695268564e-02 -3.434378965562753e-02
            2.869193777254576e-02 4.530110080730091e-01 3.991084087953525e-01 1.163585501662616e-02 8.459139701871658e-02 -3.428834654947491e-02 8.517095282608061e-02 -3.500190120357623e-02
492589658.0483736396 7.735430913306375e-02 -3.169788844690728e-02 7.625611627867170e-02 -3.454504956737049e-02 3.979860099543662e-01 -5.017811894126811e-02 9.973738677322815e-02 4.425760444573713e-01
            7.626687626512556e-02 -3.451374603138195e-02 7.737575113536854e-02 -3.172290925646419e-02 9.979098899598411e-02 4.425761631726923e-01 3.979801975200653e-01 -5.016433045912646e-02
            3.980240246520443e-01 -5.010809406522609e-02 9.975936178790795e-02 4.425904230856527e-01 7.388664346991944e-02 -3.436775466057773e-02 7.356557337991260e-02 -3.324563752268845e-02
            9.979779083296401e-02 4.425859521846126e-01 3.979528307989041e-01 -5.013583548101058e-02 7.354582097393050e-02 -3.307894069951312e-02 7.390642558367386e-02 -3.442008468853056e-02
493089241.0341951847 6.746597576060546e-02 -2.743369577035997e-02 6.636071624593495e-02 -3.028680775604657e-02 3.873772527418927e-01 -1.117724026289243e-01 1.683247710777815e-01 4.207235339279814e-01
            6.629696915483624e-02 -3.032353291438504e-02 6.745167316647165e-02 -2.739727894161546e-02 1.683747280746734e-01 4.207704963254917e-01 3.873984011566141e-01 -1.117183652358419e-01
            3.874181420726285e-01 -1.117162338162497e-01 1.683425872472170e-01 4.207544283605870e-01 6.330299554113232e-02 -3.025477003841742e-02 6.337438928507823e-02 -2.847587122323010e-02
            1.682851099473368e-01 4.207128523185030e-01 3.873674305766042e-01 -1.116797912426372e-01 6.336811871424863e-02 -2.845292276886619e-02 6.323797899991314e-02 -3.021656744650120e-02
493588824.0200166702 5.934287611327745e-02 -2.022599041735419e-02 5.828239321384278e-02 -2.319490852693941e-02 3.672339330986090e-01 -1.716682215089308e-01 2.324777001595243e-01 3.879588284987785e-01
            5.829385097216477e-02 -2.326565373112946e-02 5.930079805758499e-02 -2.017960166578188e-02 2.323697204695257e-01 3.879220081477911e-01 3.672505002340202e-01 -1.715605893791446e-01
            3.671832176448191e-01 -1.716358540511643e-01 2.323949566384517e-01 3.880298010898589e-01 5.452840301930744e-02 -2.297224639226799e-02 5.503963893602050e-02 -2.078536479492777e-02
            2.324806643495426e-01 3.879841589001163e-01 3.671991289461567e-01 -1.716397476767515e-01 5.505953981107616e-02 -2.072286020624733e-02 5.447718168886170e-02 -2.301168208872361e-02
494088407.0058382154 5.379490118977321e-02 -1.072751510232015e-02 5.295459754105183e-02 -1.393841967445659e-02 3.375463304578186e-01 -2.281594759219680e-01 2.901198450575259e-01 3.452687049057555e-01
            5.296860924766443e-02 -1.402378336780252e-02 5.388629608097596e-02 -1.075270343818067e-02 2.901331774198558e-01 3.452624023671129e-01 3.374469487630499e-01 -2.282137930490718e-01
            3.375335520963171e-01 -2.282158195030711e-01 2.901832151401454e-01 3.452622228781481e-01 4.842307906422054e-02 -1.333901815632590e-02 4.960259124985002e-02 -1.078650208297492e-02
            2.901868869719259e-01 3.452497305475489e-01 3.375285313990233e-01 -2.281672020340501e-01 4.964989934418131e-02 -1.080634953083121e-02 4.840031597461766e-02 -1.338767872133621e-02
494587989.9916597009 5.186275622981922e-02 -4.021227557255288e-05 5.090635494727392e-02 -3.462355324228355e-03 2.987983126956835e-01 -2.799004938965572e-01 3.399382604067951e-01 2.938532280012001e-01
            5.085992351046842e-02 -3.440012310086216e-03 5.179304565972030e-02 -3.577133106597859e-05 3.399594197437186e-01 2.938876011539365e-01 2.986645381473469e-01 -2.798433950222192e-01
            2.988103372193307e-01 -2.799264158243475e-01 3.398776673280162e-01 2.938648631343137e-01 4.564033930351763e-02 -2.279064959265832e-03 4.752812625736640e-02 4.648033982421188e-04
            3.399361154829341e-01 2.939005445380492e-01 2.987802445831627e-01 -2.797928430427372e-01 4.760328639170534e-02 5.199461106544105e-04 4.561038870066051e-02 -2.266002034389726e-03
495087572.9774812460 5.325513788987533e-02 1.080266821708636e-02 5.224323221902274e-02 7.152024908703886e-03 2.517088616478233e-01 -3.248160523698711e-01 3.803763439036351e-01 2.355458784721081e-01
            5.227282210975082e-02 7.084099466616623e-03 5.331195591329740e-02 1.071359887474231e-02 3.803579369738475e-01 2.355901436124200e-01 2.517241624993202e-01 -3.249820583194499e-01
            2.516897698562628e-01 -3.249379506540679e-01 3.803439027504247e-01 2.356232698461665e-01 4.655455704899238e-02 9.078605601273238e-03 4.919847629526586e-02 1.163955701552805e-02
            3.803968642977442e-01 2.355934337973389e-01 2.517061244073316e-01 -3.248620222526761e-01 4.930792863086931e-02 1.177528929275564e-02 4.655992386701058e-02 9.100325766224784e-03
495587155.9633027911 5.815998594472858e-02 2.051575485673070e-02 5.690895073887421e-02 1.648230461650272e-02 1.976514968333322e-01 -3.618867535565514e-01 4.106172653145183e-01 1.721152721194213e-01
            5.686266226257170e-02 1.642818531424151e-02 5.805830369308952e-02 2.051672118617593e-02 4.106270856829035e-01 1.721273673674774e-01 1.975924117331655e-01 -3.617904610005798e-01
            1.976159713894804e-01 -3.618463176401961e-01 4.105365202441046e-01 1.720365024305799e-01 5.099523370977935e-02 1.947983919886694e-02 5.442355410998505e-02 2.183335478861292e-02
            4.106512640898167e-01 1.721141356315947e-01 1.975978186198045e-01 -3.617859070786194e-01 5.440291472761562e-02 2.184514573942008e-02 5.094890723617506e-02 1.955771480616561e-02
496086738.9491242766 6.584152139350000e-02 2.814945880319742e-02 6.438194418741035e-02 2.388654789391892e-02 1.379489081942756e-01 -3.894627124346579e-01 4.303662010866817e-01 1.053140421682971e-01
            6.441217852455593e-02 2.381045703108902e-02 6.588385928427257e-02 2.812520399957586e-02 4.302520642929509e-01 1.053011775157924e-01 1.379985161861071e-01 -3.894740942668445e-01
            1.379476478105651e-01 -3.893870463489550e-01 4.301969858097126e-01 1.052671599343064e-01 5.834544943152645e-02 2.798752388446408e-02 6.241555499799348e-02 2.984425740334021e-02
            4.303022570998358e-01 1.052749676160053e-01 1.380137071765733e-01 -3.894486570886503e-01 6.246459434604466e-02 2.984478755623392e-02 5.839649736729376e-02 2.797109631987975e-02
496586321.9349458218 7.550104120803358e-02 3.297678426534564e-02 7.362090769048359e-02 2.840497202383257e-02 7.462562074302576e-02 -4.068736034285703e-01 4.392038107507859e-01 3.698687547187760e-02
            7.368742692523640e-02 2.839320507480458e-02 7.548733978756252e-02 3.297780730532497e-02 4.391029912413730e-01 3.704611631534373e-02 7.465960924555570e-02 -4.069990238020232e-01
            7.454468247207746e-02 -4.069437984866113e-01 4.391972896315872e-01 3.704059772693623e-02 6.785397427670851e-02 3.359243649162647e-02 7.251151314884918e-02 3.482941646727128e-02
            4.391280749131387e-01 3.691100345029887e-02 7.461226163031469e-02 -4.069120332748026e-01 7.259230952891825e-02 3.483592313680825e-02 6.793076760574387e-02 3.357346851625414e-02
497085904.9207673073 8.611735679040081e-02 3.446527524444429e-02 8.383033405648294e-02 2.973112085859473e-02 9.337428194685178e-03 -4.138117826262929e-01 4.375442438733657e-01 -3.113702632714171e-02
            8.387500854853056e-02 2.969855093003096e-02 8.612541019050068e-02 3.449983473540506e-02 4.375107977679166e-01 -3.118807941346077e-02 9.245207003462597e-03 -4.137890249206934e-01
            9.261329128560218e-03 -4.138267491690834e-01 4.374621027100540e-01 -3.117874889136990e-02 7.854560879262878e-02 3.596570329041082e-02 8.357260103350894e-02 3.651656135714469e-02
            4.375147717070562e-01 -3.115592844489488e-02 9.346454540258554e-03 -4.137353812610403e-01 8.362317885530644e-02 3.648494082333401e-02 7.859127219489875e-02 3.596465230318285e-02
497585487.9065888524 9.671257608100120e-02 3.254167911729364e-02 9.386303623426814e-02 2.770090677847134e-02 -5.594062070413818e-02 -4.100729005837995e-01 4.257233070471451e-01 -9.775347976344123e-02
            9.394861377395518e-02 2.763816881114574e-02 9.671047751270415e-02 3.259297269232438e-02 4.256689848089510e-01 -9.774121551277672e-02 -5.591381530774489e-02 -4.100123290490817e-01
            -5.593517099523217e-02 -4.100484850809724e-01 4.257371035011855e-01 -9.770315835619986e-02 8.935387092228339e-02 3.491650337189509e-02 9.449336433725324e-02 3.456031924047048e-02
            4.256841343709351e-01 -9.767647888852315e-02 -5.594087600713069e-02 -4.100690320436049e-01 9.453869835676545e-02 3.450562901890072e-02 8.929662072240301e-02 3.488458053628672e-02
498085070.8924103379 1.061354985929845e-01 2.745207046329171e-02 1.026985971527475e-01 2.271350525919884e-02 -1.194418207922141e-01 -3.961183895766114e-01 4.042062279437946e-01 -1.613136978531207e-01
            1.026826972023903e-01 2.258492365389804e-02 1.061200176267727e-01 2.751625073340486e-02 4.043441014496937e-01 -1.613745087980906e-01 -1.194439742240376e-01 -3.960407876542697e-01
            -1.193707338880296e-01 -3.960265320601330e-01 4.042194501974450e-01 -1.613553594729605e-01 9.915212037548596e-02 3.067733527739209e-02 1.042595974776083e-01 2.945596696610969e-02
            4.043198958877594e-01 -1.613388509236725e-01 -1.194671340097611e-01 -3.960374656771168e-01 1.041885073020595e-01 2.945104998139616e-02 9.914249515653521e-02 3.064150488004991e-02
498584653.8782318830 1.134660365195302e-01 1.979552241098465e-02 1.094783512951984e-01 1.511556541391751e-02 -1.795843245191847e-01 -3.724412028722279e-01 3.737328415474810e-01 -2.208132947035573e-01
            1.095047792872550e-01 1.509683542104815e-02 1.133847436963926e-01 1.986341249820333e-02 3.737525801521326e-01 -2.208271657244970e-01 -1.795338632801039e-01 -3.723417297715804e-01
            -1.794796600891055e-01 -3.723888279854995e-01 3.737484775896011e-01 -2.208194508940902e-01 1.070552916446801e-01 2.360150317543490e-02 1.118556914110200e-01 2.169964984535470e-02
            3.737459987628249e-01 -2.207976373833545e-01 -1.795063790468593e-01 -3.724259707662402e-01 1.119095902012279e-01 2.171068694166225e-02 1.070580709945024e-01 2.363911115012283e-02
499084236.8640533686 1.181398634816680e-01 1.020041133306626e-02 1.135337810272933e-01 5.858245939519189e-03 -2.349287240187646e-01 -3.398785771957812e-01 3.347842143005199e-01 -2.750622797899847e-01
            1.135631985442941e-01 5.786067694665691e-03 1.180894021450771e-01 1.021896445863759e-02 3.348547752565019e-01 -2.750281222995073e-01 -2.349567095691338e-01 -3.399157533498772e-01
            -2.349551713060231e-01 -3.399444422366792e-01 3.347739954464152e-01 -2.750639334886011e-01 1.122517989420828e-01 1.461266789845164e-02 1.167808752516184e-01 1.205800414936715e-02
            3.348244660299913e-01 -2.750310590257379e-01 -2.349722509167762e-01 -3.399464586270758e-01 1.166944878028821e-01 1.198271120676193e-02 1.123078665108257e-01 1.460123730924010e-02
499583819.8498749137 1.195074241059452e-01 -2.346882138000887e-04 1.146413383204713e-01 -4.200771324225982e-03 -2.844898709058823e-01 -2.996490848794399e-01 2.881990246310664e-01 -3.228721314815617e-01
            1.145666322095635e-01 -4.217749104534160e-03 1.195772706996655e-01 -3.393250324664148e-04 2.881741035499841e-01 -3.229052164450476e-01 -2.845345236551632e-01 -2.996214764305253e-01
            -2.846555750979659e-01 -2.996363487615363e-01 2.882357450847478e-01 -3.229041506077412e-01 1.145009502339662e-01 4.453466361799423e-03 1.184474336796829e-01 1.312990056595122e-03
            2.881969224316771e-01 -3.229342291797053e-01 -2.845871562215382e-01 -2.995504722452244e-01 1.185070969338193e-01 1.322612392653621e-03 1.145121325705515e-01 4.564705554558968e-03
500083402.8356963992 1.178270000917374e-01 -1.071481849398712e-02 1.123608531674765e-01 -1.423372874513090e-02 -3.274429974234457e-01 -2.524814107704906e-01 2.348289377649420e-01 -3.632474736815129e-01
            1.123910786577550e-01 -1.420440781400793e-02 1.178226490947434e-01 -1.079367592046982e-02 2.348529451507640e-01 -3.633366702801151e-01 -3.274202419030037e-01 -2.524916675790276e-01
            -3.273785363991655e-01 -2.525063478850828e-01 2.348741395141469e-01 -3.632573059902696e-01 1.135642899419342e-01 -5.628904423969866e-03 1.167741948417922e-01 -9.256185347251913e-03
            2.349024071520203e-01 -3.633214931170324e-01 -3.274411415628378e-01 -2.525175857828690e-01 1.167343443354351e-01 -9.263437876463011e-03 1.135851299377170e-01 -5.704503856269823e-03
500582985.8215179443 1.129723720255499e-01 -2.026851150195673e-02 1.072689825980488e-01 -2.309150740792220e-02 -3.627388962585286e-01 -1.996740617229880e-01 1.757156364054077e-01 -3.952232652875854e-01
            1.072984309883853e-01 -2.311114875723315e-02 1.128898336752930e-01 -2.028989989147532e-02 1.756641999333780e-01 -3.953336352647133e-01 -3.627526849089511e-01 -1.996993365717194e-01
            -3.627361214842370e-01 -1.996487690246535e-01 1.757411803038784e-01 -3.953249427990480e-01 1.094969869975667e-01 -1.503787087486730e-02 1.119542111083295e-01 -1.886318352399209e-02
            1.756891136994432e-01 -3.952612636371040e-01 -3.627256152339527e-01 -1.996480392181190e-01 1.119838034414231e-01 -1.887272499936293e-02 1.095254789375196e-01 -1.501268883605771e-02
501082568.8073394299 1.054074557212440e-01 -2.782180694825254e-02 9.956069459676917e-02 -3.014529480811232e-02 -3.899294319964354e-01 -1.420491556593590e-01 1.120273009962200e-01 -4.178325114449283e-01
            9.942696991209152e-02 -3.010736622749644e-02 1.053449784349577e-01 -2.777373856648366e-02 1.119972571044837e-01 -4.178792805997434e-01 -3.898696802071691e-01 -1.419980488808076e-01
            -3.899128013556959e-01 -1.420743251854816e-01 1.120052697440665e-01 -4.179230906442554e-01 1.027052670447088e-01 -2.268428454630273e-02 1.044655211283145e-01 -2.654365249755729e-02
            1.119568515018152e-01 -4.178365664184506e-01 -3.899596690469234e-01 -1.420174143392316e-01 1.043784759532571e-01 -2.653319299096887e-02 1.026709462717624e-01 -2.265165405961928e-02
501582151.7931609750 9.582786949296893e-02 -3.280889900712711e-02 8.995555366709629e-02 -3.438622727355801e-02 -4.083095101988597e-01 -8.074910618718055e-02 4.516427736758764e-02 -4.302459643668587e-01
            8.985391797694264e-02 -3.431584158409490e-02 9.580421426955935e-02 -3.272047506928314e-02 4.519027167271652e-02 -4.301915784896169e-01 -4.084254870520042e-01 -8.081843350881147e-02
            -4.083083862470830e-01 -8.076344197827498e-02 4.514048480012154e-02 -4.301714864176294e-01 9.384926416163945e-02 -2.779891164364955e-02 9.478916175777302e-02 -3.155273324206762e-02
            4.521577708915524e-02 -4.302421503513637e-01 -4.083048216191188e-01 -8.083204556601575e-02 9.482367347841458e-02 -3.148125685919783e-02 9.385235980213329e-02 -2.784844592150702e-02
502081734.7789825201 8.516263155795296e-02 -3.446121048576491e-02 7.922753391389256e-02 -3.553937111292892e-02 -4.175280595274080e-01 -1.713110261945239e-02 -2.315348430499209e-02 -4.318014769414222e-01
            7.932021185012762e-02 -3.540442842332477e-02 8.502268680312620e-02 -3.439684046248122e-02 -2.307867677869786e-02 -4.318496108679686e-01 -4.174767648935584e-01 -1.721117029258185e-02
            -4.175998229421144e-01 -1.713595370777670e-02 -2.308658583072338e-02 -4.318390868920859e-01 8.382214004774666e-02 -2.986570704737311e-02 8.415522167214938e-02 -3.324027655484328e-02
            -2.309370698399893e-02 -4.318894782860644e-01 -4.174954097079969e-01 -1.716994735414944e-02 8.409604498526199e-02 -3.322180150737837e-02 8.387631209567656e-02 -2.995704183298169e-02
502581317.7648040056 7.433431142722857e-02 -3.277037610173550e-02 6.870327661813180e-02 -3.322953547712060e-02 -4.170112927198540e-01 4.771660190862209e-02 -9.093982767609325e-02 -4.223681138477801e-01
            6.871229976504364e-02 -3.324153412968062e-02 7.438140068648848e-02 -3.279742322342125e-02 -9.097759136613043e-02 -4.223657958112409e-01 -4.170105213196330e-01 4.781314595990776e-02
            -4.169606355366789e-01 4.776449008586461e-02 -9.093541990094793e-02 -4.223580773043248e-01 7.357399135559674e-02 -2.878219874243954e-02 7.337422904576528e-02 -3.158416317867067e-02
            -9.098041883928995e-02 -4.223924386403244e-01 -4.170554788834798e-01 4.774265485199026e-02 7.338442139392630e-02 -3.155999872936040e-02 7.355444385565943e-02 -2.874435767729597e-02
503080900.7506255507 6.462326015104108e-02 -2.772576985732901e-02 5.923342073076786e-02 -2.779593294798134e-02 -4.064285247755077e-01 1.124735009149050e-01 -1.564487900987852e-01 -4.019830392436467e-01
            5.924512814033599e-02 -2.779932551001328e-02 6.460149030235511e-02 -2.773173799698849e-02 -1.565276615311169e-01 -4.020436965576110e-01 -4.063752077450780e-01 1.124098289878484e-01
            -4.065014732848977e-01 1.124874058809810e-01 -1.565042719807106e-01 -4.020228007698942e-01 6.420149119439095e-02 -2.433844264433621e-02 6.361217257706350e-02 -2.655993909281154e-02
            -1.564237517787504e-01 -4.019823332680714e-01 -4.064759883835345e-01 1.124423661834689e-01 6.358145787474778e-02 -2.659562335664580e-02 6.419055948482272e-02 -2.424169792212906e-02
503580483.7364470363 5.690195389223117e-02 -1.994470716271056e-02 5.193765983184025e-02 -1.954844922538172e-02 -3.857687164783755e-01 1.754234390933498e-01 -2.175871234168121e-01 -3.711719882059124e-01
            5.194784406190196e-02 -1.961929557908799e-02 5.698748209412047e-02 -1.983403556013414e-02 -2.176489981891505e-01 -3.711899634412134e-01 -3.858086100974318e-01 1.753700675356851e-01
            -3.857492987817304e-01 1.753740562895240e-01 -2.176645597086962e-01 -3.711441908136728e-01 5.670434699098571e-02 -1.689234632320082e-02 5.596500375020302e-02 -1.858979009201543e-02
            -2.176656091729239e-01 -3.711765133138979e-01 -3.857977853456963e-01 1.753794374660489e-01 5.592358544536993e-02 -1.867793348360793e-02 5.667260670911298e-02 -1.698200050646396e-02
504080066.7222685814 5.210320662984414e-02 -1.002651178181640e-02 4.748241836197911e-02 -9.450219218218541e-03 -3.551141219242822e-01 2.348483831651547e-01 -2.728652395324679e-01 -3.307466083557061e-01
            4.749482983582629e-02 -9.458224651096787e-03 5.210549231400792e-02 -1.000168724767980e-02 -2.728325372836579e-01 -3.308598144220182e-01 -3.550672601979249e-01 2.349144629945523e-01
            -3.551017656016176e-01 2.349335282300199e-01 -2.728864667980928e-01 -3.307997831506442e-01 5.183395846690544e-02 -7.687211288708702e-03 5.115605253914429e-02 -8.618580384090281e-03
            -2.728637666428637e-01 -3.307570256028317e-01 -3.550637154472638e-01 2.348210465763335e-01 5.106961721490681e-02 -8.685829948427979e-03 5.185385020560671e-02 -7.623348726708617e-03
504579649.7080900669 5.071647108906543e-02 1.027445686245941e-03 4.648128037756250e-02 1.744328077852612e-03 -3.148798040024905e-01 2.891111237860733e-01 -3.202942012835538e-01 -2.822962079725924e-01
            4.646067902080930e-02 1.697903083092953e-03 5.079110012306012e-02 1.132473713379761e-03 -3.203421043295266e-01 -2.821319336627932e-01 -3.148425163081409e-01 2.890912635892584e-01
            -3.148803611463877e-01 2.891281901919843e-01 -3.203052095838715e-01 -2.822633129152926e-01 5.027681220623683e-02 2.777227410318778e-03 4.982301629068848e-02 2.398533324331419e-03
            -3.203351871870461e-01 -2.823100993496280e-01 -3.148685070188956e-01 2.891219613132724e-01 4.984854811211438e-02 2.462919431969685e-03 5.031329776461721e-02 2.852261258971014e-03
505079232.6939116120 5.303557141394970e-02 1.184986647558449e-02 4.903674275853590e-02 1.248378410173557e-02 -2.660696208590062e-01 3.364913694662002e-01 -3.590364122704994e-01 -2.271575594991717e-01
            4.907104014213456e-02 1.256124933244890e-02 5.305121041636196e-02 1.184775883934900e-02 -3.589937642202004e-01 -2.271373666459685e-01 -2.660126606898292e-01 3.364066877945883e-01
            -2.660547595123626e-01 3.363914752761683e-01 -3.590513949045931e-01 -2.272113295706608e-01 5.220618120634399e-02 1.324153392247082e-02 5.212998798288471e-02 1.336943317110857e-02
            -3.589862816453674e-01 -2.272310285681613e-01 -2.659949484476302e-01 3.364103901676222e-01 5.205895220446370e-02 1.331616705984304e-02 5.230612143049806e-02 1.313549206118586e-02
505578815.6797330976 5.850205356523350e-02 2.131974219371805e-02 5.487622283628110e-02 2.198164924427901e-02 -2.098362386107465e-01 3.752808582176532e-01 -3.881179003177297e-01 -1.671919810561394e-01
            5.477744212360989e-02 2.195396979830029e-02 5.858162806463123e-02 2.139366351538876e-02 -3.882017023765952e-01 -1.671781518399982e-01 -2.098915498260665e-01 3.753275626590607e-01
            -2.098060803568925e-01 3.752766273259487e-01 -3.881190940031305e-01 -1.671958328774651e-01 5.737676084261532e-02 2.237444128617170e-02 5.768425824401646e-02 2.299392806249888e-02
            -3.881817001036270e-01 -1.671968787596056e-01 -2.098528816187949e-01 3.752546109908494e-01 5.770045714828977e-02 2.285732732779455e-02 5.749770971652108e-02 2.231029743376346e-02
506078398.6655546427 6.681459650235880e-02 2.859574053637676e-02 6.321786583826833e-02 2.910463979975372e-02 -1.478893549829890e-01 4.044397464844998e-01 -4.072155126838489e-01 -1.040579910652092e-01
            6.327677675554820e-02 2.914983078165847e-02 6.678872779721928e-02 2.854149379616758e-02 -4.072160747691616e-01 -1.041086066090347e-01 -1.478617835521011e-01 4.045030407138888e-01
            -1.479382145138725e-01 4.044421745531606e-01 -4.072732598378272e-01 -1.040193929508355e-01 6.529603306140923e-02 2.930293768850080e-02 6.602210571099232e-02 3.027304233252726e-02
            -4.071766818623724e-01 -1.040656957030567e-01 -1.479511065593974e-01 4.044803483121777e-01 6.601740999983589e-02 3.022255441770328e-02 6.529373161586280e-02 2.934642453913800e-02
506577981.6513761282 7.692427413482895e-02 3.287248398585067e-02 7.332203817526319e-02 3.320940315655437e-02 -8.215270733214287e-02 4.231144655824905e-01 -4.162242070495584e-01 -3.952045761929628e-02
            7.334811320957642e-02 3.310495692228308e-02 7.691396670361947e-02 3.279655655381758e-02 -4.161915157320847e-01 -3.951859079874016e-02 -8.205181704741207e-02 4.231372493662044e-01
            -8.205229657155233e-02 4.230537758698217e-01 -4.162429215858456e-01 -3.943827212336972e-02 7.485299319400497e-02 3.368888510604162e-02 7.622485763618475e-02 3.461252697517830e-02
            -4.162295352973076e-01 -3.953450126296058e-02 -8.215238083658155e-02 4.230903096602833e-01 7.622855087313331e-02 3.464653777754038e-02 7.493004203552511e-02 3.360222383401026e-02
507077564.6371976733 8.776522032705829e-02 3.366832599236492e-02 8.415816799066546e-02 3.388203980060023e-02 -1.429660620560022e-02 4.307847239095062e-01 -4.152865031388792e-01 2.497214446344812e-02
            8.413502607678475e-02 3.394556703411217e-02 8.785404392223546e-02 3.366143132359971e-02 -4.152398419872306e-01 2.502290002500626e-02 -1.429894604128256e-02 4.307958995681928e-01
            -1.425363574504286e-02 4.307807691101557e-01 -4.153245120512471e-01 2.498228758883935e-02 8.528635532063164e-02 3.463331076064892e-02 8.714110768941287e-02 3.551850842380751e-02
            -4.153036466905257e-01 2.497697152205461e-02 -1.432585544020033e-02 4.307400626805185e-01 8.718631324522112e-02 3.551677473919837e-02 8.527339814919742e-02 3.458526493446371e-02
507577147.6230192184 9.836276159119402e-02 3.104845260852915e-02 9.465844261701160e-02 3.128274528749534e-02 5.354812424900551e-02 4.274848451769682e-01 -4.048775818071469e-01 8.813026570903859e-02
            9.457955305922665e-02 3.127753935782802e-02 9.832428615325117e-02 3.110614704934734e-02 -4.048051589794615e-01 8.813591402550856e-02 5.356844385537692e-02 4.274645516577170e-01
            5.354036301360100e-02 4.274279521036762e-01 -4.047876960927882e-01 8.810231000262954e-02 9.539674298031244e-02 3.234649693927264e-02 9.791643967116234e-02 3.298647827792311e-02
            -4.047812995701737e-01 8.810293321116884e-02 5.354141931647589e-02 4.274405891449129e-01 9.788430804440962e-02 3.306828426146148e-02 9.536067519291863e-02 3.234274114109822e-02
508076730.6088407040 1.075395512003984e-01 2.543321976101857e-02 1.035832868323687e-01 2.567059227841313e-02 1.195846637842368e-01 4.135971831701001e-01 -3.851631339216274e-01 1.486371575146594e-01
            1.036040018706289e-01 2.564521545502493e-02 1.076448281383809e-01 2.535097057995165e-02 -3.851820754529847e-01 1.486110368916100e-01 1.195716044302017e-01 4.135108969074087e-01
            1.194859514455433e-01 4.135737428944203e-01 -3.851477971838793e-01 1.486311235153703e-01 1.042125767240832e-01 2.698244156305268e-02 1.072931133372903e-01 2.743953179144189e-02
            -3.851429250610540e-01 1.485424884949945e-01 1.195630758106400e-01 4.135184812408891e-01 1.073046498932803e-01 2.745211895870605e-02 1.041610430804823e-01 2.697835024884653e-02
508576313.5946622491 1.146342434594596e-01 1.717521653085810e-02 1.103405591637186e-01 1.748693401030501e-02 1.822512494780751e-01 3.896318245271939e-01 -3.569323759666665e-01 2.053325502996206e-01
            1.103747489288481e-01 1.749729523832674e-02 1.146641992066331e-01 1.717336842040218e-02 -3.569974425163839e-01 2.053628179097718e-01 1.823472522142712e-01 3.896226626255230e-01
            1.822222337176476e-01 3.896049152239581e-01 -3.569566321347185e-01 2.053151082210645e-01 1.110307305218213e-01 1.931182947604704e-02 1.144338430199570e-01 1.929359431289114e-02
            -3.569353957523602e-01 2.052953299905431e-01 1.823323409953449e-01 3.896935128217947e-01 1.144041050238276e-01 1.928695357118569e-02 1.110395318932163e-01 1.930542832767936e-02
509075896.5804837346 1.187857100410558e-01 7.298506847225562e-03 1.143073834713310e-01 7.843782223740379e-03 2.402321368888128e-01 3.565603348647255e-01 -3.206606756456880e-01 2.572134816259056e-01
            1.142278600587448e-01 7.871387288115116e-03 1.188664023926638e-01 7.263065746201639e-03 -3.206576706102721e-01 2.571596568164730e-01 2.402525297056109e-01 3.565995995467734e-01
            2.402567753132951e-01 3.566080976748751e-01 -3.207741214501603e-01 2.571902867572686e-01 1.151433457851461e-01 9.947145943103461e-03 1.188333244909602e-01 9.425885446298108e-03
            -3.207381263208834e-01 2.571601776815127e-01 2.402654571435550e-01 3.565487641190379e-01 1.188754833435637e-01 9.442516281381930e-03 1.151131357636231e-01 9.956887321447219e-03
509575479.5663052797 1.198477926727744e-01 -3.553841905855595e-03 1.150468057956960e-01 -2.622509521141882e-03 2.923384051671144e-01 3.153378561306455e-01 -2.771425411598598e-01 3.030415627445140e-01
            1.150533961677256e-01 -2.571022161595434e-03 1.197431436976792e-01 -3.654807059965859e-03 -2.770752005581817e-01 3.031368316373982e-01 2.923067221802252e-01 3.152931974432601e-01
            2.923483982234037e-01 3.152969732092734e-01 -2.771278804695457e-01 3.031369823376310e-01 1.161462403715499e-01 -2.560164558426491e-04 1.200148659606000e-01 -1.311207880832667e-03
            -2.770467001968699e-01 3.030860724108710e-01 2.923718462639641e-01 3.153626240313152e-01 1.200229073978633e-01 -1.329019598448877e-03 1.161616761968259e-01 -1.931970611469618e-04
510075062.5521267653 1.175368376277736e-01 -1.414593044488005e-02 1.125842295902436e-01 -1.273001153654602e-02 3.374711309393290e-01 2.669074534379043e-01 -2.268789345876893e-01 3.420892119295164e-01
            1.126142076232708e-01 -1.268844151192971e-02 1.175833369704904e-01 -1.414925613517061e-02 -2.268618196203659e-01 3.421575751643935e-01 3.373855341246579e-01 2.669267886856843e-01
            3.374886020783556e-01 2.668759626080285e-01 -2.269540499790886e-01 3.420907763258504e-01 1.141082923997930e-01 -1.028543832355284e-02 1.179777431168428e-01 -1.188471446597463e-02
            -2.268647210107557e-01 3.420332759274744e-01 3.374021187409721e-01 2.668926202824450e-01 1.180243185822079e-01 -1.185200589282777e-02 1.141093960616517e-01 -1.029609669743813e-02
510574645.5379483104 1.122186790253234e-01 -2.374694139889408e-02 1.071440591479546e-01 -2.166597261121775e-02 3.748732637874629e-01 2.123484552931195e-01 -1.710822192858550e-01 3.731821254126561e-01
            1.071785072819263e-01 -2.159392700627694e-02 1.121721445349294e-01 -2.370608021642121e-02 -1.711144141888185e-01 3.731632601161882e-01 3.749096389916577e-01 2.123587918039985e-01
            3.749005407355744e-01 2.122950781310526e-01 -1.710862489672181e-01 3.731743285899211e-01 1.090067010790663e-01 -1.917196388710526e-02 1.128475862207960e-01 -2.136753205365561e-02
            -1.711062771241689e-01 3.731668134988818e-01 3.748870222316248e-01 2.122732768664214e-01 1.128664140027312e-01 -2.133250124161154e-02 1.090100175920151e-01 -1.915756915687094e-02
511074228.5237697959 1.041861436371048e-01 -3.112012210207623e-02 9.922390675511317e-02 -2.841898581493324e-02 4.039081587197323e-01 1.526612184404950e-01 -1.107716226234105e-01 3.953397388574744e-01
            9.927142938186270e-02 -2.840428802724834e-02 1.040740038973120e-01 -3.105876988297888e-02 -1.107889815383755e-01 3.953041669087791e-01 4.039004221787167e-01 1.527036964395575e-01
            4.038825428733678e-01 1.527147382143905e-01 -1.107741550656383e-01 3.952759183167225e-01 1.014335482566522e-01 -2.608628867300814e-02 1.050965984058558e-01 -2.876053484535598e-02
            -1.107330542523818e-01 3.953029661100926e-01 4.038666581014910e-01 1.527256896282962e-01 1.050792143315679e-01 -2.875154209670109e-02 1.014644149002187e-01 -2.612256644156356e-02
511573811.5095913410 9.421809191242034e-02 -3.580181992109579e-02 8.951063303313131e-02 -3.254677596749100e-02 4.238409549481969e-01 8.926555973984267e-02 -4.734116726934851e-02 4.078211468858228e-01
            8.948345337981800e-02 -3.256648153777506e-02 9.417718329253383e-02 -3.581042363859349e-02 -4.732602181350775e-02 4.077820459525762e-01 4.238783557896740e-01 8.921688794733232e-02
            4.237977094027944e-01 8.919057496330354e-02 -4.733521054601678e-02 4.077228592934547e-01 9.208630851239349e-02 -3.033101478435861e-02 9.539930459037711e-02 -3.362580878620884e-02
            -4.742068305354863e-02 4.078089677496193e-01 4.237781373770081e-01 8.920078147155787e-02 9.543481333242020e-02 -3.358971391668907e-02 9.213426467488731e-02 -3.050274365547924e-02
512073394.4954128265 8.319484820824508e-02 -3.727379738300473e-02 7.890677174911118e-02 -3.338351511174999e-02 4.341098253356833e-01 2.295146433998881e-02 1.754287334129451e-02 4.098785936892368e-01
            7.883929559282365e-02 -3.340558707025077e-02 8.326363338241319e-02 -3.721232372357677e-02 1.745490976937515e-02 4.099359641462081e-01 4.340717692172357e-01 2.299675051095639e-02
            4.341088933635298e-01 2.294417865577917e-02 1.753789550813169e-02 4.099453488061306e-01 8.172267670612737e-02 -3.157027887768357e-02 8.485414386388951e-02 -3.512136763123471e-02
            1.749738096490037e-02 4.099470475424663e-01 4.340741015971459e-01 2.306209349423087e-02 8.478773971398233e-02 -3.509043527472388e-02 8.172617438084885e-02 -3.162584209704083e-02
512572977.4812343717 7.232108733524399e-02 -3.538261531928185e-02 6.837826083982254e-02 -3.085373806443021e-02 4.342881515217913e-01 -4.456148807479990e-02 8.202370489067223e-02 4.015385746977437e-01
            6.842995396560435e-02 -3.075887957797481e-02 7.225566625005488e-02 -3.539674512119943e-02 8.206791660752344e-02 4.014429603822389e-01 4.341922961133396e-01 -4.453927526392282e-02
            4.342973728604526e-01 -4.453424475783819e-02 8.206722658994708e-02 4.014837918242491e-01 7.155062989755769e-02 -2.942126450850109e-02 7.411641000272827e-02 -3.335829186243791e-02
            8.209496376928299e-02 4.015351576477604e-01 4.342414349413607e-01 -4.460738955051802e-02 7.413146575565981e-02 -3.334836155028168e-02 7.151572352580250e-02 -2.950563546097835e-02
513072560.4670559168 6.243750635968351e-02 -3.013559361850250e-02 5.921438182201925e-02 -2.520696175294389e-02 4.238824125770988e-01 -1.120160529710476e-01 1.443708518375315e-01 3.826549746267155e-01
            5.927248274488960e-02 -2.511318499781743e-02 6.247653809394673e-02 -3.013665872574543e-02 1.444557656671177e-01 3.826970780747482e-01 4.239626119085727e-01 -1.120218031943924e-01
            4.239534161706771e-01 -1.120614507749035e-01 1.444406531935506e-01 3.826788907098257e-01 6.234710447703791e-02 -2.421632191396176e-02 6.465003041206871e-02 -2.828445899798728e-02
            1.444623678881924e-01 3.826351325576855e-01 4.239484012516602e-01 -1.119684147230983e-01 6.471237064716799e-02 -2.828404878927674e-02 6.237103073285968e-02 -2.416630155754144e-02
513572143.4528774023 5.477933397937765e-02 -2.205423734359028e-02 5.236496676693549e-02 -1.681268799161718e-02 4.031121878736228e-01 -1.777182793242257e-01 2.027704400518026e-01 3.539263187628349e-01
            5.230567039562939e-02 -1.674174637053608e-02 5.468910647814061e-02 -2.205572854334513e-02 2.028048780348480e-01 3.538665052697242e-01 4.030910634091158e-01 -1.776713946193169e-01
            4.031188020213232e-01 -1.776550854896868e-01 2.027987515276572e-01 3.538899160631903e-01 5.537747076533975e-02 -1.624734018045432e-02 5.721583325804683e-02 -2.053661911114166e-02
            2.027419166540063e-01 3.538509001921182e-01 4.030809098717109e-01 -1.776340138791472e-01 5.723036584357679e-02 -2.048208051412043e-02 5.539225907020312e-02 -1.623930910300016e-02
514071726.4386989474 4.994191095404662e-02 -1.199651589564377e-02 4.837028076992216e-02 -6.543700319258186e-03 3.716862118264299e-01 -2.397836952647657e-01 2.553409756000610e-01 3.160461985375171e-01
            4.847097809163532e-02 -6.535218416413157e-03 4.995933632830287e-02 -1.194549673193288e-02 2.553795147681189e-01 3.160101373928993e-01 3.717644864403412e-01 -2.396860093871317e-01
            3.717352353350594e-01 -2.397753038609690e-01 2.553839925795998e-01 3.160185710296083e-01 5.117866680988035e-02 -6.465118105016488e-03 5.271713281464985e-02 -1.085256091922859e-02
            2.554260017471664e-01 3.160366059974579e-01 3.717678414718446e-01 -2.397422740678788e-01 5.264775728723115e-02 -1.073840991598735e-02 5.126468075194229e-02 -6.428281473285780e-03
514571309.4245204329 4.859639713045703e-02 -1.005022673713699e-03 4.787716471992656e-02 4.307608032579596e-03 3.305242303476059e-01 -2.964197229659725e-01 3.007180482900551e-01 2.704168427841966e-01
            4.792109586047753e-02 4.367294296126732e-03 4.854574483519299e-02 -9.671508287128900e-04 3.007815993697567e-01 2.703630067671237e-01 3.305305675690681e-01 -2.964661824878970e-01
            3.304682727713873e-01 -2.963944278991597e-01 3.007691343721887e-01 2.704425715381777e-01 5.037561586729211e-02 4.065086354281077e-03 5.145969918779862e-02 -2.170251247122680e-04
            3.007466721634184e-01 2.704590031557794e-01 3.305788436388373e-01 -2.964899370372375e-01 5.154308251329185e-02 -2.276559090285308e-04 5.038863202980044e-02 4.147420792747036e-03
515070892.4103419781 5.076111811051316e-02 9.707380559829570e-03 5.092778843775342e-02 1.490495687652863e-02 2.802487031283904e-01 -3.460151254369540e-01 3.378231874008050e-01 2.185505065168147e-01
            5.084446082063290e-02 1.492514204738317e-02 5.075566728619973e-02 9.762673490138150e-03 3.378297665792172e-01 2.185939605026815e-01 2.802853663960871e-01 -3.460058680948947e-01
            2.802916653897745e-01 -3.459629328069113e-01 3.378321786914488e-01 2.185050222751701e-01 5.308936347551774e-02 1.448823918421204e-02 5.381964656523596e-02 1.000411756794192e-02
            3.378316610363178e-01 2.184211365852071e-01 2.803172095799576e-01 -3.460077580430398e-01 5.384454717423748e-02 1.001095085829939e-02 5.308894460247892e-02 1.438078517567395e-02
515570475.3961634636 5.614037736082653e-02 1.917671697048146e-02 5.698125530955307e-02 2.396698203234513e-02 2.224263234680265e-01 -3.868634589970107e-01 3.658549882401834e-01 1.620092975055677e-01
            5.704190715095287e-02 2.392574104329595e-02 5.616014804523398e-02 1.919070070812016e-02 3.658087099827490e-01 1.619528112367281e-01 2.224331644770374e-01 -3.868985017477676e-01
            2.224067855395060e-01 -3.868758094019804e-01 3.657702168735788e-01 1.619576556395082e-01 5.879506899990538e-02 2.338008907079995e-02 5.913309049705986e-02 1.900214994303503e-02
            3.657953174772827e-01 1.619089742209911e-01 2.224190133636612e-01 -3.869019129503700e-01 5.921119795955861e-02 1.905620100394074e-02 5.881806096179339e-02 2.331798196742186e-02
516070058.3819850087 6.420301161606305e-02 2.626827273655721e-02 6.569831556896033e-02 3.064048872635068e-02 1.585552586876048e-01 -4.177453668068084e-01 3.843487906620933e-01 1.024412550618590e-01
            6.566839663234948e-02 3.053748747100942e-02 6.415789572106642e-02 2.630135943081422e-02 3.844040563655901e-01 1.023691917057814e-01 1.586276994634465e-01 -4.177686508835891e-01
            1.585400817984824e-01 -4.177459058255777e-01 3.844073543884665e-01 1.024441101926369e-01 6.700554325602089e-02 2.991275589726489e-02 6.712890427999886e-02 2.565886320987978e-02
            3.843933457570775e-01 1.024510738818130e-01 1.586322871681760e-01 -4.178022338281091e-01 6.719432119065738e-02 2.566740043408545e-02 6.700698148356309e-02 2.996339705091529e-02
516569641.3678064942 7.388368697690580e-02 3.040697542470352e-02 7.591013170311139e-02 3.396343557914405e-02 9.064836760561951e-02 -4.378998730105576e-01 3.934592692500565e-01 4.142961920536085e-02
            7.585756696833841e-02 3.398176289940261e-02 7.396474758620387e-02 3.042373789876739e-02 3.934930020292637e-01 4.148557949584874e-02 9.063536874067497e-02 -4.378814611684761e-01
            9.068615949436824e-02 -4.378836498238955e-01 3.934367860323717e-01 4.141726073787665e-02 7.686784673543286e-02 3.355075585310802e-02 7.670895160621531e-02 2.940454451076341e-02
            3.934408895291915e-01 4.148719854090618e-02 9.066138414007638e-02 -4.377685542224010e-01 7.670326590058689e-02 2.940662112820800e-02 7.688898776674276e-02 3.359067929905982e-02
517069224.3536280394 8.433545647962552e-02 3.133848219889495e-02 8.656981679802515e-02 3.416448054795158e-02 2.054227628625472e-02 -4.466026013683688e-01 3.931341477646593e-01 -1.966391824989049e-02
            8.655950181043727e-02 3.414877415291429e-02 8.431050621099005e-02 3.123466603241814e-02 3.930935607347134e-01 -1.963438017345300e-02 2.053541777080680e-02 -4.466506968926377e-01
            2.059865285939851e-02 -4.466540897254239e-01 3.931339921627320e-01 -1.959348742962474e-02 8.732335827267768e-02 3.396006518483703e-02 8.680378704217853e-02 2.988917213744782e-02
            3.931670861608629e-01 -1.965141507663629e-02 2.058565016122039e-02 -4.465601901732233e-01 8.687709464594449e-02 2.983446617315826e-02 8.724842370073410e-02 3.395276271138672e-02
517568807.3394495249 9.428500311898233e-02 2.891854098943129e-02 9.673493100267104e-02 3.099225008945944e-02 -4.972526964868958e-02 -4.440546549413583e-01 3.838503690257106e-01 -7.938385694374425e-02
            9.668331782675316e-02 3.094244100997934e-02 9.436567307205951e-02 2.887034228523613e-02 3.838151296192475e-01 -7.935269602432357e-02 -4.977829206752876e-02 -4.440972609056550e-01
            -4.968653565915052e-02 -4.440169410648372e-01 3.837599642473290e-01 -7.944536905109308e-02 9.724247385555067e-02 3.108297751166214e-02 9.648024640758217e-02 2.704216330391692e-02
            3.838301963310087e-01 -7.942047249911528e-02 -4.973640446918735e-02 -4.440933209306346e-01 9.653619280550418e-02 2.702560933893552e-02 9.733279628502521e-02 3.105681251666224e-02
518068390.3252710700 1.029861501859663e-01 2.358503175609062e-02 1.052748780811560e-01 2.487612397260376e-02 -1.183371484962839e-01 -4.305674309963862e-01 3.657975038973353e-01 -1.367287638994883e-01
            1.052735490445445e-01 2.489228470131979e-02 1.029907920133385e-01 2.352643039455289e-02 3.658830264704491e-01 -1.367802526961754e-01 -1.183669854372830e-01 -4.305864164934720e-01
            -1.182516722412786e-01 -4.306294003434267e-01 3.658261771424811e-01 -1.367962556068891e-01 1.057656956157430e-01 2.533372006245440e-02 1.047960113875903e-01 2.142331137034275e-02
            3.658678647358885e-01 -1.368147891694622e-01 -1.183410256358457e-01 -4.306217540270776e-01 1.048118827867434e-01 2.137186360992725e-02 1.057592575490043e-01 2.531126584187101e-02
518567973.3110926151 1.094656923693034e-01 1.581261031897309e-02 1.115540806351713e-01 1.641287226607782e-02 -1.836732197296194e-01 -4.067792227314429e-01 3.396709390088561e-01 -1.908341337974683e-01
            1.115398589456747e-01 1.642141602930308e-02 1.094714646875901e-01 1.578089236547291e-02 3.396847828979790e-01 -1.907494186645374e-01 -1.836443464618095e-01 -4.067832101871743e-01
            -1.836763447553299e-01 -4.067681475438846e-01 3.397580981760970e-01 -1.907762830110039e-01 1.120280263152242e-01 1.737650175111588e-02 1.108517156452411e-01 1.353762453894854e-02
            3.396403212740274e-01 -1.908139642672746e-01 -1.837024143445221e-01 -4.068210898308752e-01 1.108472265109188e-01 1.350838729766189e-02 1.120976976532140e-01 1.739333777889817e-02
519067556.2969141006 1.131900639574832e-01 6.571424459063530e-03 1.148753012803927e-01 6.564536655318667e-03 -2.442272929934534e-01 -3.733900723310041e-01 3.058300732474093e-01 -2.402321422072867e-01
            1.149472898634373e-01 6.536925535003317e-03 1.131463145409956e-01 6.552627721453231e-03 3.058560677738055e-01 -2.402264396449922e-01 -2.442442524059513e-01 -3.733048803042491e-01
            -2.443098182826435e-01 -3.733776325343183e-01 3.058399354956599e-01 -2.401746977522067e-01 1.155037254588459e-01 7.858650888927770e-03 1.141627615008360e-01 4.123737554398297e-03
            3.058654671012542e-01 -2.402215898674839e-01 -2.442886878587798e-01 -3.732658843552694e-01 1.140880290205516e-01 4.116572980765626e-03 1.154347755749604e-01 7.783507289007141e-03
519567139.2827356458 1.138106115636425e-01 -3.456571075950834e-03 1.150282093430376e-01 -3.849402263798866e-03 -2.989176736234869e-01 -3.313542103788670e-01 2.648344545538487e-01 -2.842339660508419e-01
            1.150531096675613e-01 -3.767195505122375e-03 1.139742312455759e-01 -3.437744951973776e-03 2.649605370494064e-01 -2.841558857508285e-01 -2.988300645737572e-01 -3.312911592060961e-01
            -2.988762389032911e-01 -3.313343558580179e-01 2.649784082352232e-01 -2.842203275452312e-01 1.159601809069918e-01 -2.366867327459466e-03 1.144070032998114e-01 -5.849477494202252e-03
            2.648849008592843e-01 -2.841669865721251e-01 -2.989923450730052e-01 -3.313905199074330e-01 1.143582892089360e-01 -5.821663425959841e-03 1.159578304127927e-01 -2.306832312558162e-03
520066722.2685571313 1.114145656433839e-01 -1.320478164744498e-02 1.120079314311085e-01 -1.374441221035871e-02 -3.465745626431166e-01 -2.817136927914517e-01 2.176364357090530e-01 -3.215212089590330e-01
            1.119286740476772e-01 -1.372516830815895e-02 1.113950016349829e-01 -1.317138555685853e-02 2.176022614421811e-01 -3.216129969284210e-01 -3.465812370314293e-01 -2.816773846202311e-01
            -3.465343389956601e-01 -2.816439206923633e-01 2.175889606478624e-01 -3.216277044893734e-01 1.133342681215660e-01 -1.201840064775519e-02 1.115090834367951e-01 -1.535086476972232e-02
            2.175662653636649e-01 -3.215350987127252e-01 -3.465765832927822e-01 -2.816685415279296e-01 1.115134876977027e-01 -1.540973291727101e-02 1.132962765852738e-01 -1.202281214887676e-02
520566305.2543786764 1.060463940037136e-01 -2.162272436389322e-02 1.059861022420384e-01 -2.233022373054441e-02 -3.863311125717722e-01 -2.255508353531606e-01 1.649595786569713e-01 -3.513606136845538e-01
            1.060212429005366e-01 -2.234817613007477e-02 1.060660473540132e-01 -2.159281475179739e-02 1.649358638922640e-01 -3.514847266832410e-01 -3.863339106236218e-01 -2.254507562967129e-01
            -3.862297589868144e-01 -2.254282587193087e-01 1.649151424741931e-01 -3.514236103733760e-01 1.077971226798446e-01 -2.043419754713251e-02 1.057261819897193e-01 -2.365839746245545e-02
            1.649949821087234e-01 -3.513724230651209e-01 -3.862916949871070e-01 -2.255018223921222e-01 1.056801974066470e-01 -2.365979600463443e-02 1.077620416812988e-01 -2.040874658709384e-02
521065888.2402001619 9.829101056910991e-02 -2.803528663757646e-02 9.770471939302749e-02 -2.865570413996577e-02 -4.173691531506620e-01 -1.639243349406808e-01 1.078727160378952e-01 -3.727565715331074e-01
            9.759327281090326e-02 -2.871435164607105e-02 9.833260025535932e-02 -2.798872508212376e-02 1.078817623015992e-01 -3.728039192280607e-01 -4.172841724737824e-01 -1.639056315133709e-01
            -4.173012921407564e-01 -1.638792724142994e-01 1.078465800451882e-01 -3.727313424330631e-01 9.988424128743320e-02 -2.679248354418738e-02 9.767472387810536e-02 -2.985045617639842e-02
            1.078463421316150e-01 -3.727838267444376e-01 -4.173585179438835e-01 -1.638917999949784e-01 9.764933148362996e-02 -2.981862671633426e-02 9.985305800086509e-02 -2.675949214264923e-02
521565471.2260217071 8.883560802578280e-02 -3.176371469744451e-02 8.765386014314752e-02 -3.209267602570097e-02 -4.388645945892640e-01 -9.807060426572081e-02 4.789786682533990e-02 -3.849585200527388e-01
            8.761095739504578e-02 -3.207209060460653e-02 8.889849479780107e-02 -3.170401913221479e-02 4.795890572319628e-02 -3.848638066916679e-01 -4.389393103145702e-01 -9.811230538821440e-02
            -4.387743782263817e-01 -9.807454731445821e-02 4.797223038642837e-02 -3.849073859328777e-01 9.029706559814220e-02 -3.047409708740316e-02 8.790298056815997e-02 -3.321015571649102e-02
            4.796862669542096e-02 -3.848060858895273e-01 -4.388253278358846e-01 -9.798908881522418e-02 8.793641326338769e-02 -3.320461715648591e-02 9.034619687241903e-02 -3.043549734727966e-02
522065054.2118431926 7.863882680947912e-02 -3.223059800514583e-02 7.691577411283416e-02 -3.235489819809415e-02 -4.503425873906834e-01 -2.922658785821992e-02 -1.340786545188769e-02 -3.872917390952522e-01
            7.704635532841181e-02 -3.232155325569860e-02 7.863232615791040e-02 -3.229665433591821e-02 -1.347996300072029e-02 -3.872462090362986e-01 -4.503597362937231e-01 -2.916914653923702e-02
            -4.503059013950034e-01 -2.926835375769625e-02 -1.344419013938473e-02 -3.873264532603463e-01 8.016654520036498e-02 -3.078884034385631e-02 7.760185214298815e-02 -3.339735909172065e-02
            -1.351746794209264e-02 -3.873104233112126e-01 -4.503486583481485e-01 -2.929589805686929e-02 7.763638574199527e-02 -3.347896335370402e-02 8.012207755002201e-02 -3.084244895964465e-02
522564637.1976647377 6.863202868077983e-02 -2.953851619796337e-02 6.671789407003514e-02 -2.911307441733492e-02 -4.512309136206333e-01 4.106257936015720e-02 -7.450527880687065e-02 -3.795378413287576e-01
            6.677231810215499e-02 -2.913858476743893e-02 6.867431634803473e-02 -2.955334784132600e-02 -7.450078025261046e-02 -3.796100789787945e-01 -4.512749203435611e-01 4.107538737933514e-02
            -4.512839377700189e-01 4.108323699489237e-02 -7.458464731912466e-02 -3.795063111998407e-01 7.034249766089659e-02 -2.804239279214362e-02 6.756441460116486e-02 -3.039733885747298e-02
            -7.453359806797889e-02 -3.795259052911900e-01 -4.513215925120725e-01 4.109739020340610e-02 6.761813601642226e-02 -3.032625501693715e-02 7.029554780443273e-02 -2.796767694958313e-02
523064220.1834862232 6.008602853990595e-02 -2.374161624897884e-02 5.795264568867424e-02 -2.268765897204341e-02 -4.411799902707960e-01 1.113896867327860e-01 -1.335081049671990e-01 -3.619699901167665e-01
            5.788701324044054e-02 -2.269234258834027e-02 6.007428437753970e-02 -2.383466719446353e-02 -1.334865578848647e-01 -3.619781924044723e-01 -4.411915759148723e-01 1.113450138043966e-01
            -4.410611827537261e-01 1.113255838891789e-01 -1.335126262564399e-01 -3.619315838164900e-01 6.171955609703778e-02 -2.219040860635409e-02 5.898235927185640e-02 -2.430608088481371e-02
            -1.335275374177185e-01 -3.619505127643525e-01 -4.411676739815259e-01 1.113733297556017e-01 5.898372031949074e-02 -2.434864529257228e-02 6.174392240900917e-02 -2.215927294058969e-02
523563803.1693077683 5.373178644686347e-02 -1.551244048577025e-02 5.141880269420607e-02 -1.394587879094925e-02 -4.198886251426581e-01 1.796742773145582e-01 -1.885883062879055e-01 -3.349173494825719e-01
            5.150174891126070e-02 -1.401036065487289e-02 5.369084761127740e-02 -1.550170928204071e-02 -1.886462389971392e-01 -3.349639754875665e-01 -4.199293208408041e-01 1.798519361109816e-01
            -4.199808118262470e-01 1.797498539438453e-01 -1.886497851043158e-01 -3.349042853066656e-01 5.554443338972458e-02 -1.376072837478406e-02 5.262781114353499e-02 -1.574602781096791e-02
            -1.886304693463271e-01 -3.349247482291701e-01 -4.199346379118753e-01 1.797864791129322e-01 5.265641258612726e-02 -1.574737282439313e-02 5.555420561063917e-02 -1.384489409586503e-02
524063386.1551293135 5.027619127225218e-02 -5.620969662965962e-03 4.812802481012079e-02 -3.413196364689639e-03 -3.879277015686166e-01 2.444591403000540e-01 -2.383263198720154e-01 -2.994192799797357e-01
            4.815019606645117e-02 -3.533990009923560e-03 5.029073182559663e-02 -5.604404465051260e-03 -2.382473494161748e-01 -2.994653749185999e-01 -3.878612767350650e-01 2.445168087103958e-01
            -3.878362276742751e-01 2.444726606193867e-01 -2.382907724107357e-01 -2.993957172087991e-01 5.239724704086214e-02 -3.895082161512946e-03 4.942644831012657e-02 -5.609180205138909e-03
            -2.381999403039897e-01 -2.994678524415675e-01 -3.878588243362652e-01 2.444531328409338e-01 4.940747502732460e-02 -5.585182543938098e-03 5.243279041020531e-02 -3.910235112257006e-03
524562969.1409507990 5.019540323997040e-02 4.860754903728757e-03 4.834466470924897e-02 7.595777706710519e-03 -3.454920467106773e-01 3.035408584157200e-01 -2.811434954362632e-01 -2.567128307385133e-01
            4.830556627535901e-02 7.634399006528680e-03 5.024594051483302e-02 4.826732752080858e-03 -2.810676591890310e-01 -2.566687713715914e-01 -3.454871584824049e-01 3.035502615234731e-01
            -3.455133284069122e-01 3.035743105229043e-01 -2.811100187711515e-01 -2.566795816545182e-01 5.259352775952931e-02 6.522761430481431e-03 4.944277002855479e-02 5.113170780584393e-03
            -2.810876477362025e-01 -2.567440543823603e-01 -3.454503473424512e-01 3.035324168020026e-01 4.947365061358257e-02 5.127101942044744e-03 5.247073492710428e-02 6.524781035161761e-03
525062552.1267723441 5.341945073174539e-02 1.483660705449635e-02 5.197289902457481e-02 1.804936472949058e-02 -2.937909282822023e-01 3.552334086087008e-01 -3.160556811066534e-01 -2.080990944733896e-01
            5.197657132512376e-02 1.800452681026393e-02 5.344348295473689e-02 1.480363949150509e-02 -3.160560089547866e-01 -2.080851598398673e-01 -2.937933126132655e-01 3.552348771734186e-01
            -2.937861878391416e-01 3.552337016163437e-01 -3.161080262116216e-01 -2.081469780226902e-01 5.603877299656789e-02 1.633892186443957e-02 5.284879224654685e-02 1.506232010479610e-02
            -3.160441397818223e-01 -2.081041883991800e-01 -2.938117341121484e-01 3.552371156612545e-01 5.288768454650501e-02 1.516335641311160e-02 5.598293885965940e-02 1.630329560693024e-02
525562135.1125938296 5.975592028889400e-02 2.325368143770195e-02 5.871787340993993e-02 2.672849692347129e-02 -2.342951330398998e-01 3.978711618050707e-01 -3.425940497301539e-01 -1.551989541976613e-01
            5.863338983690437e-02 2.674687181763111e-02 5.975490867239920e-02 2.320800320846199e-02 -3.426316682637847e-01 -1.551950752410439e-01 -2.342826230366154e-01 3.978476059172232e-01
            -2.342554524006956e-01 3.978340117861264e-01 -3.426108543751444e-01 -1.551932468675027e-01 6.248949711119600e-02 2.457973868387357e-02 5.924746045719572e-02 2.353620715059439e-02
            -3.426411464984279e-01 -1.551211497510217e-01 -2.341735213758440e-01 3.978229966675773e-01 5.929099838297078e-02 2.359224753575651e-02 6.249032040924678e-02 2.451024003133752e-02
526061718.0984153748 6.821435040627437e-02 2.908775017139242e-02 6.779558824844820e-02 3.284000884154375e-02 -1.685549552008177e-01 4.302332103229959e-01 -3.603938789536956e-01 -9.948240860659734e-02
            6.775857945594128e-02 3.289447000237564e-02 6.832780797574230e-02 2.905889824038116e-02 -3.603785854597559e-01 -9.947635315969987e-02 -1.684800462421579e-01 4.301628745470986e-01
            -1.685396182585892e-01 4.302575114940253e-01 -3.603523392306162e-01 -9.954255170027092e-02 7.118679678684775e-02 3.019922457473899e-02 6.796286884689942e-02 2.954107308786178e-02
            -3.603800015934362e-01 -9.952459639938285e-02 -1.685119189126439e-01 4.301570981419367e-01 6.794077645234407e-02 2.946146258682398e-02 7.112832068937640e-02 3.023350900506173e-02
526561301.0842368603 7.821841106836233e-02 3.203252896391783e-02 7.820576725868716e-02 3.585898562391657e-02 -9.854789674805363e-02 4.514309376750127e-01 -3.692861586796447e-01 -4.238617274515229e-02
            7.816662353939086e-02 3.585586123707588e-02 7.819969664267810e-02 3.203745689578519e-02 -3.693430263291931e-01 -4.243031168813860e-02 -9.858547498032143e-02 4.514574889345170e-01
            -9.852980921046434e-02 4.515059110360530e-01 -3.692966298121994e-01 -4.242379047979064e-02 8.123852459438555e-02 3.282728113487602e-02 7.807020455934849e-02 3.246477095259875e-02
            -3.693771826676883e-01 -4.238704908923883e-02 -9.858027315897526e-02 4.514454241608954e-01 7.794162873065558e-02 3.243412668688338e-02 8.121488377568568e-02 3.285505591344379e-02
527060884.0700584054 8.846104390113713e-02 3.165372990616702e-02 8.890934452932513e-02 3.556836275754779e-02 -2.637299113527508e-02 4.610725174889193e-01 -3.695190244214145e-01 1.473119110979325e-02
            8.887326022850010e-02 3.555211436650364e-02 8.844706933089509e-02 3.165808447542037e-02 -3.695769458891930e-01 1.479963109132467e-02 -2.643559767819728e-02 4.611041804607778e-01
            -2.635792654805471e-02 4.611020748167849e-01 -3.694675567205298e-01 1.473628436096857e-02 9.149632804726300e-02 3.223234764839789e-02 8.834845713405901e-02 3.214460094621215e-02
            -3.695813488906610e-01 1.483293083086287e-02 -2.631333846123194e-02 4.611843249357068e-01 8.830799936870459e-02 3.215799676369011e-02 9.156903375442227e-02 3.219796067886423e-02
527560467.0558798909 9.797075479124714e-02 2.809804962416350e-02 9.897022217818920e-02 3.190041694578604e-02 4.610688305509481e-02 4.592548168853257e-01 -3.613644562411370e-01 7.099549066333678e-02
            9.898084060740077e-02 3.195476576188427e-02 9.792280346965575e-02 2.817594961359817e-02 -3.613824471612646e-01 7.098907013814176e-02 4.605245635423681e-02 4.592487600502752e-01
            4.610223987015515e-02 4.592192393138167e-01 -3.614575630051117e-01 7.088510321128033e-02 1.011143342078160e-01 2.842158485127302e-02 9.786325618006513e-02 2.850725754591084e-02
            -3.613150512461452e-01 7.093931149143903e-02 4.606207002538842e-02 4.592586708040880e-01 9.793287570702246e-02 2.859228861751855e-02 1.011309604352617e-01 2.842126364972188e-02
528060050.0417014360 1.059562157605704e-01 2.191125819174771e-02 1.073406364224183e-01 2.553901565844057e-02 1.169259039327123e-01 4.461176827540340e-01 -3.450910164485668e-01 1.250056251624263e-01
            1.073533747848684e-01 2.551820545078866e-02 1.059258900625651e-01 2.195055859748101e-02 -3.450606334795570e-01 1.250327347486094e-01 1.169462052825007e-01 4.460698242790118e-01
            1.169096913718144e-01 4.461062338690255e-01 -3.450705313966438e-01 1.249856642954680e-01 1.090731561223520e-01 2.183935768256674e-02 1.058773698091050e-01 2.226698390479004e-02
            -3.450806871046140e-01 1.250035963944877e-01 1.169275366352389e-01 4.461088281727916e-01 1.058750016573027e-01 2.225030390987805e-02 1.090385179882494e-01 2.186153090705096e-02
528559633.0275229216 1.115684697036510e-01 1.363374906494934e-02 1.133497325745238e-01 1.696037779955378e-02 1.846082368342538e-01 4.223155564094839e-01 -3.211426836412411e-01 1.759386677981482e-01
            1.133674045828316e-01 1.692547854625545e-02 1.115135449905837e-01 1.353341037847267e-02 -3.211386047243431e-01 1.759430893460114e-01 1.844984837556588e-01 4.223350182272081e-01
            1.845639858505242e-01 4.223180425897728e-01 -3.211148817973041e-01 1.759174485961614e-01 1.145533597716017e-01 1.319105232087178e-02 1.115695279567143e-01 1.386055212949318e-02
            -3.210871051774760e-01 1.759428792692047e-01 1.844989422801147e-01 4.223160003679780e-01 1.115858967005503e-01 1.392485154343306e-02 1.146441274066455e-01 1.324518547301109e-02
529059216.0133444667 1.142523377998268e-01 3.901322330839770e-03 1.163940335132066e-01 6.957951878243908e-03 2.474791771618121e-01 3.886483040954030e-01 -2.897989528825667e-01 2.227862896741218e-01
            1.163603197889125e-01 6.926838522786193e-03 1.143562050746552e-01 3.893104959843869e-03 -2.897684403422491e-01 2.228330812078793e-01 2.474982503829552e-01 3.885577590100539e-01
            2.474663325824152e-01 3.885689272890923e-01 -2.898177415111836e-01 2.227470703443012e-01 1.173014295311216e-01 3.297298997473106e-03 1.143076608824713e-01 4.311599478581254e-03
            -2.897578184055318e-01 2.227591442254694e-01 2.474289680092908e-01 3.886140313093158e-01 1.142871034327833e-01 4.346148822547263e-03 1.171713947472627e-01 3.235145268684413e-03
529558798.9991659522 1.139472251087643e-01 -6.216167996425134e-03 1.163418080239999e-01 -3.371882650704081e-03 3.043635935179886e-01 3.459417950903506e-01 -2.517771514372489e-01 2.645388365998249e-01
            1.163579073860817e-01 -3.406962976956254e-03 1.139661276661290e-01 -6.140012538248694e-03 -2.517457620083984e-01 2.645318997233801e-01 3.043767104399467e-01 3.459939633467446e-01
            3.043983706774309e-01 3.460227689761744e-01 -2.517341950812101e-01 2.645736428676415e-01 1.166358300355513e-01 -6.973977997475547e-03 1.139635723831519e-01 -5.597576409214901e-03
            -2.517951084527767e-01 2.645402413045622e-01 3.043971558387247e-01 3.460528784245601e-01 1.140398972281875e-01 -5.664558892890107e-03 1.167402424719949e-01 -6.965614993233421e-03
530058381.9849874973 1.105317527652861e-01 -1.565536551756002e-02 1.131035564248886e-01 -1.321967160125017e-02 3.542362358162684e-01 2.953920331664224e-01 -2.076369098242768e-01 3.001740569170460e-01
            1.130959731277491e-01 -1.318956796966707e-02 1.104969267085574e-01 -1.556924573852329e-02 -2.076240688297946e-01 3.001567995764973e-01 3.542164622810204e-01 2.954011002161516e-01
            3.542322707699764e-01 2.954136074995117e-01 -2.075995289529861e-01 3.002513965531672e-01 1.130553929391899e-01 -1.665697128119983e-02 1.105917581660325e-01 -1.512334949896673e-02
            -2.076063636872216e-01 3.002592530030084e-01 3.543398658953248e-01 2.954003196760002e-01 1.105904754958126e-01 -1.500228590143917e-02 1.131725150871690e-01 -1.672024197226845e-02
530557964.9708090425 1.043217597763618e-01 -2.363825054267467e-02 1.070180890252690e-01 -2.150594024248008e-02 3.960469038234201e-01 2.379729105114504e-01 -1.582667975646094e-01 3.287841424657536e-01
            1.069799620316289e-01 -2.155840874782730e-02 1.043699322698416e-01 -2.362620680692502e-02 -1.582940660089576e-01 3.287861418180661e-01 3.960134467848829e-01 2.379610578984138e-01
            3.960204061277468e-01 2.380007568038018e-01 -1.583220805834701e-01 3.288700763784424e-01 1.066266017341619e-01 -2.489744941609424e-02 1.043528886369166e-01 -2.294674296771772e-02
            -1.582082363381807e-01 3.287893249077537e-01 3.959859776939010e-01 2.379886920195074e-01 1.044279458326660e-01 -2.292166633018079e-02 1.067175421523753e-01 -2.490873863990415e-02
531057547.9566305280 9.597818348584680e-02 -2.937660940391327e-02 9.867728404117163e-02 -2.753989209240535e-02 4.289313036244210e-01 1.746640414858845e-01 -1.047910217898009e-01 3.494090020915298e-01
            9.865041121038387e-02 -2.757778001607651e-02 9.601950905368616e-02 -2.939724867157661e-02 -1.047602497645893e-01 3.493757349079628e-01 4.289582584010841e-01 1.746259009832944e-01
            4.289780905999038e-01 1.746213382904181e-01 -1.047929109072421e-01 3.494353461135767e-01 9.806782260487179e-02 -3.078734079404726e-02 9.615302182174092e-02 -2.853986406596258e-02
            -1.046999989825967e-01 3.494350686532215e-01 4.289165302776454e-01 1.746081843971275e-01 9.613057822866426e-02 -2.858763599849539e-02 9.802604448163260e-02 -3.072049108405548e-02
531557130.9424520731 8.605876312843240e-02 -3.234497371758437e-02 8.882518729599112e-02 -3.063144980349473e-02 4.520807759552383e-01 1.068741415114436e-01 -4.839022385463383e-02 3.612867685032408e-01
            8.883364655756935e-02 -3.066238905792842e-02 8.609393534383572e-02 -3.235748135372704e-02 -4.833522110091178e-02 3.612638180706064e-01 4.520693611899569e-01 1.068301893655447e-01
            4.520557804421003e-01 1.068517764272056e-01 -4.835132186791759e-02 3.612717017049197e-01 8.802302569408506e-02 -3.373852090398474e-02 8.646874905973162e-02 -3.135235169247007e-02
            -4.832250574964792e-02 3.613338221729777e-01 4.520763491452128e-01 1.068572329865427e-01 8.645209044787439e-02 -3.136820231086406e-02 8.794343096950832e-02 -3.371069703884271e-02
532056713.9282735586 7.567025206168584e-02 -3.204489053169241e-02 7.844887176436932e-02 -3.049422036975170e-02 4.647673753099215e-01 3.575778773620376e-02 9.388775385053647e-03 3.638552025844754e-01
            7.843508462203881e-02 -3.059100909799140e-02 7.571505020950077e-02 -3.204467546137470e-02 9.565551397682635e-03 3.638851984021032e-01 4.647203217250976e-01 3.577929539663906e-02
            4.647185729774010e-01 3.579137992946066e-02 9.478832681372827e-03 3.638841534577725e-01 7.737893266921808e-02 -3.339659585554616e-02 7.631597001315368e-02 -3.090895554658121e-02
            9.397105911348983e-03 3.638935924265596e-01 4.647823918989666e-01 3.582839862712947e-02 7.624569240457252e-02 -3.088292035045811e-02 7.735363979461371e-02 -3.343881898836155e-02
532556296.9140951037 6.589562431973106e-02 -2.850101958558413e-02 6.865740722354952e-02 -2.722283042204230e-02 4.665026721483937e-01 -3.699306774835506e-02 6.702234395370098e-02 3.569921109772170e-01
            6.859465355951759e-02 -2.713950611110219e-02 6.586575828788668e-02 -2.840694415971691e-02 6.699401246471502e-02 3.569892051854557e-01 4.664929478367996e-01 -3.685719193756755e-02
            4.665060491741398e-01 -3.694269473315998e-02 6.702032191101820e-02 3.570046334524756e-01 6.739061121375245e-02 -2.978909005161099e-02 6.661087617371172e-02 -2.734118135543949e-02
            6.698541568737769e-02 3.570267253016915e-01 4.664914644389281e-01 -3.690841113455932e-02 6.670200713876118e-02 -2.730725208010736e-02 6.736883062881387e-02 -2.984741344609125e-02
533055879.8999165893 5.763433779655226e-02 -2.197438202215347e-02 6.039180645653567e-02 -2.073923499986744e-02 4.567437543422345e-01 -1.097009384963309e-01 1.226091131095859e-01 3.407217546335602e-01
            6.032048456821620e-02 -2.074589399936138e-02 5.759077681975100e-02 -2.196961486642177e-02 1.225490064909603e-01 3.406983159060308e-01 4.566557892773347e-01 -1.097590473913112e-01
            4.567493646891849e-01 -1.096615492298849e-01 1.225102223203469e-01 3.407224457550983e-01 5.890432234500587e-02 -2.320904464728003e-02 5.874234633300784e-02 -2.076025017272424e-02
            1.225080295490467e-01 3.407081993258733e-01 4.567488840893955e-01 -1.097283650255080e-01 5.869664085403711e-02 -2.072736702123961e-02 5.885987554583450e-02 -2.330092281748100e-02
533555462.8857381344 5.179680918293041e-02 -1.307801597786142e-02 5.456899212349169e-02 -1.204447492675868e-02 4.355412122540140e-01 -1.806382268796267e-01 1.744326166883882e-01 3.154793580537184e-01
            5.458554446087446e-02 -1.206393572598993e-02 5.181859992946616e-02 -1.308038501534568e-02 1.744021793322202e-01 3.155915319120696e-01 4.355070449311622e-01 -1.805950287826347e-01
            4.355111909026434e-01 -1.806488226511505e-01 1.743517002645239e-01 3.154911753839292e-01 5.295547055060016e-02 -1.434785781022234e-02 5.320976509836122e-02 -1.195766215695972e-02
            1.743487167644367e-01 3.155694780263075e-01 4.355340065576075e-01 -1.805643913257463e-01 5.319205842476209e-02 -1.195718478972228e-02 5.292398183047722e-02 -1.424980535789448e-02
534055045.8715596199 4.891966976068601e-02 -2.834709393364969e-03 5.189906823395952e-02 -1.965087405873588e-03 4.029412971275960e-01 -2.477364208962205e-01 2.211548102395322e-01 2.824935845541225e-01
            5.181899907922086e-02 -1.960334762917227e-03 4.893786737618819e-02 -2.747774398068074e-03 2.210979191991741e-01 2.824148705843320e-01 4.029326226600663e-01 -2.477022668343280e-01
            4.029634799303459e-01 -2.477046927444208e-01 2.210974019058745e-01 2.825014107660321e-01 5.022097180221889e-02 -3.941899838188418e-03 5.083367074914130e-02 -1.821030377793147e-03
            2.211007716934215e-01 2.825033764381738e-01 4.029464386824183e-01 -2.477062433094386e-01 5.078705094584979e-02 -1.847873837349504e-03 5.010712750924787e-02 -3.967772803931582e-03
534554628.8573811650 4.961281525480006e-02 7.826462968218382e-03 5.257638097336982e-02 8.601987761799764e-03 3.597634840920384e-01 -3.090287804962366e-01 2.613553967251948e-01 2.425051992470948e-01
            5.254903632490453e-02 8.539569255297469e-03 4.962673857547175e-02 7.885059738479788e-03 2.613505352411437e-01 2.425650564502345e-01 3.597584292983112e-01 -3.090531662637330e-01
            3.597690543329242e-01 -3.089643661242813e-01 2.613768606941222e-01 2.425887644080181e-01 5.071932131295970e-02 6.804038692495816e-03 5.171142852287385e-02 8.632363731179598e-03
            2.613412039059889e-01 2.425683878751992e-01 3.597562411038393e-01 -3.090341781441892e-01 5.164720610451635e-02 8.584667135902002e-03 5.071556029186471e-02 6.836800097508863e-03
535054211.8432026505 5.360640029090325e-02 1.776130123438442e-02 5.667625152648775e-02 1.822660932689715e-02 3.069569345015827e-01 -3.626791884492932e-01 2.943943641596498e-01 1.973212320701403e-01
            5.665425210500724e-02 1.828843760744095e-02 5.357288236909266e-02 1.776886253689991e-02 2.943014949817198e-01 1.972206702302155e-01 3.069695219524788e-01 -3.627064997114366e-01
            3.068961614319887e-01 -3.627713558032790e-01 2.943364735014653e-01 1.972976319574125e-01 5.471927331520050e-02 1.678897860034512e-02 5.600136525615643e-02 1.812722562031218e-02
            2.943801836185870e-01 1.972375651222123e-01 3.069205779912990e-01 -3.626808313544982e-01 5.588753543459627e-02 1.815100342499195e-02 5.466085156118176e-02 1.676269447357608e-02
535553794.8290241957 6.040781634921626e-02 2.590689448674083e-02 6.355854199486091e-02 2.611504938934462e-02 2.459471319928320e-01 -4.071735283050517e-01 3.193701045615651e-01 1.479052097549550e-01
            6.353493721788731e-02 2.614784634055334e-02 6.043420202616864e-02 2.585112832482923e-02 3.193350374112324e-01 1.479532386184005e-01 2.459401979373604e-01 -4.072310288393950e-01
            2.459142549444920e-01 -4.071789706414894e-01 3.193610044353139e-01 1.480428421106860e-01 6.151208455990347e-02 2.486353972166580e-02 6.308886250979641e-02 2.578904705511358e-02
            3.193718876445317e-01 1.479763784098454e-01 2.460088408109574e-01 -4.071857478186091e-01 6.307590334389596e-02 2.581783978709805e-02 6.145560950141087e-02 2.490975191485597e-02
536053377.8148457408 6.932627101359190e-02 3.136222583682002e-02 7.253749736093185e-02 3.146896912422524e-02 1.786696766021587e-01 -4.410790338122978e-01 3.362900265821101e-01 9.602704147891677e-02
            7.252291705516038e-02 3.139633317035251e-02 6.928990505653489e-02 3.137762553871703e-02 3.362984800542850e-01 9.607925993147123e-02 1.786363197380137e-01 -4.410822702264614e-01
            1.786163350840179e-01 -4.411027225296542e-01 3.362606636062392e-01 9.599610582868216e-02 7.052879831383851e-02 3.040739783578205e-02 7.212570055533314e-02 3.084985367811110e-02
            3.363833408984116e-01 9.604257308599885e-02 1.786101652180392e-01 -4.409741587683886e-01 7.210692556557532e-02 3.082914861763287e-02 7.060615770641961e-02 3.032462791175195e-02
536552960.8006672263 7.956449681684130e-02 3.378145148861386e-02 8.281958568282355e-02 3.355285860241636e-02 1.069097911416892e-01 -4.636044171746438e-01 3.450107996442663e-01 4.280646382578669e-02
            8.274127462474649e-02 3.346414534599244e-02 7.955490468517923e-02 3.377034496519934e-02 3.449855143547937e-01 4.280175126644749e-02 1.069490938500748e-01 -4.635576017029914e-01
            1.069350168497648e-01 -4.635786652821405e-01 3.450063020705249e-01 4.273563929165312e-02 8.078106155573030e-02 3.275712082122142e-02 8.229707257084470e-02 3.277583945150593e-02
            3.450366245406769e-01 4.286192416393036e-02 1.070425794118053e-01 -4.636033779152370e-01 8.228867842506253e-02 3.278262069275831e-02 8.074836061227036e-02 3.286558161086712e-02
537052543.7864887714 8.982701313614919e-02 3.289319701526251e-02 9.306444897347176e-02 3.240659937981320e-02 3.276179910435367e-02 -4.743377601889444e-01 3.456901403286460e-01 -1.054755844327708e-02
            9.311283148447765e-02 3.236596515440103e-02 8.984536319486155e-02 3.300779949348982e-02 3.456720117102303e-01 -1.056386666637612e-02 3.286191602650987e-02 -4.744068431085249e-01
            3.281153970315543e-02 -4.743640623092112e-01 3.457557765402488e-01 -1.058018260051068e-02 9.105544283116467e-02 3.186042300190838e-02 9.246580111939587e-02 3.144130750748435e-02
            3.456341219704853e-01 -1.051660465804719e-02 3.283739468623861e-02 -4.743191472363458e-01 9.253295771522946e-02 3.145240046053992e-02 9.110704038726863e-02 3.190528671840048e-02
537552126.7723102570 9.924047480995489e-02 2.897869901397375e-02 1.024833763547166e-01 2.816183686336612e-02 -4.159741468079987e-02 -4.732853168903801e-01 3.386413364186195e-01 -6.313067054813512e-02
            1.024143112452084e-01 2.816281366660249e-02 9.927638764771586e-02 2.898440757044820e-02 3.385154691356346e-01 -6.319307038992987e-02 -4.164386875773422e-02 -4.733223203174965e-01
            -4.161564331231643e-02 -4.732334590085504e-01 3.384871968016677e-01 -6.306511803287032e-02 1.005845897856548e-01 2.784684887298755e-02 1.017114195844964e-01 2.705991558471845e-02
            3.385441569385774e-01 -6.302737839596100e-02 -4.159852825259348e-02 -4.731711760755828e-01 1.017139985311778e-01 2.701062041000300e-02 1.006077360335476e-01 2.780574659313085e-02
538051709.7581317425 1.069717792654312e-01 2.242210369836170e-02 1.101004719776321e-01 2.114469639261289e-02 -1.145796785240984e-01 -4.606331328524985e-01 3.237291044441495e-01 -1.138127999536508e-01
            1.100869198041245e-01 2.121850522466114e-02 1.070314824907267e-01 2.239312316782815e-02 3.237899407836762e-01 -1.137269112529368e-01 -1.145371779863561e-01 -4.606663532611538e-01
            -1.146479734481395e-01 -4.606317597285285e-01 3.238061211916000e-01 -1.136783810068002e-01 1.082838547274121e-01 2.116679144993725e-02 1.091377835289422e-01 2.000786120427264e-02
            3.237625412362275e-01 -1.137936551275576e-01 -1.146255407054247e-01 -4.606527232169175e-01 1.090905232066305e-01 1.996363485585388e-02 1.082128665080348e-01 2.123862415323612e-02
538551292.7439533472 1.122868170425069e-01 1.380333164220329e-02 1.152247437711616e-01 1.230171314111912e-02 -1.843520255580457e-01 -4.369858029697038e-01 3.018477929609693e-01 -1.615052704797015e-01
            1.151395473846148e-01 1.229317174909442e-02 1.122435208959431e-01 1.377265351414237e-02 3.018843386904823e-01 -1.615326657053893e-01 -1.843680814083612e-01 -4.370390013250532e-01
            -1.844061404840216e-01 -4.370615904576540e-01 3.018304075627729e-01 -1.615161419265959e-01 1.134861699220787e-01 1.243173813532138e-02 1.139249491389049e-01 1.114618854981945e-02
            3.017960401790117e-01 -1.615125570831842e-01 -1.843061735683026e-01 -4.370186958666049e-01 1.139290454092583e-01 1.105698303293331e-02 1.135420405957019e-01 1.243915138340167e-02
539050875.7297748327 1.145909613897427e-01 4.110644682370740e-03 1.173932026563978e-01 2.380717493076557e-03 -2.495543229831794e-01 -4.031908742054083e-01 2.729750449769653e-01 -2.056816222023129e-01
            1.173258380277379e-01 2.368163860345549e-03 1.146915527819783e-01 3.999492000061676e-03 2.730453546529555e-01 -2.056569562857660e-01 -2.495743166698444e-01 -4.032449323332310e-01
            -2.495699548343579e-01 -4.032897005127086e-01 2.730137821051473e-01 -2.056692083415703e-01 1.158538678241040e-01 2.563832935870671e-03 1.158393064883888e-01 1.114709144232603e-03
            2.730255250402148e-01 -2.055500998464947e-01 -2.495439223380552e-01 -4.032743030580262e-01 1.157258294339494e-01 1.156803618321849e-03 1.158703845355609e-01 2.613955566619302e-03
539550458.7155963182 1.139884979006527e-01 -5.927301573715520e-03 1.163300084110861e-01 -7.828724516487577e-03 -3.087178196062579e-01 -3.601976055484928e-01 2.377386863718956e-01 -2.451015968714319e-01
            1.163662189774969e-01 -7.809852416017636e-03 1.139534022859378e-01 -5.831521762113352e-03 2.378759968589211e-01 -2.450589876942743e-01 -3.086476909609167e-01 -3.602188316321497e-01
            -3.087147085677608e-01 -3.601693375213291e-01 2.377906711767283e-01 -2.451488161603887e-01 1.150910686613880e-01 -7.458290522612110e-03 1.146007970907520e-01 -9.021495089725461e-03
            2.378922547757366e-01 -2.451404610084055e-01 -3.086252671556132e-01 -3.601658362472474e-01 1.145193250667761e-01 -8.963444283579505e-03 1.150947367038089e-01 -7.468741859646837e-03
540050041.7014178038 1.101896999596500e-01 -1.509775350222145e-02 1.124359092655302e-01 -1.714620795467639e-02 -3.607577174506068e-01 -3.087721615321887e-01 1.967876218801553e-01 -2.788918048712711e-01
            1.123442709915525e-01 -1.718444406720997e-02 1.102674118393700e-01 -1.507714895458612e-02 1.967906779751985e-01 -2.789491781814432e-01 -3.607095100782183e-01 -3.088288679052596e-01
            -3.607036911846297e-01 -3.088108997138279e-01 1.967608128105509e-01 -2.789137874886721e-01 1.112537748167755e-01 -1.686004080340919e-02 1.103810680082326e-01 -1.827147438016802e-02
            1.967771619001285e-01 -2.789470747105557e-01 -3.607783847957908e-01 -3.087490637357473e-01 1.103526108392389e-01 -1.820890979601603e-02 1.112294503106878e-01 -1.681750472192976e-02
540549624.6872394085 1.038595571944220e-01 -2.281984514225045e-02 1.057687869360984e-01 -2.501540986197730e-02 -4.044884156738490e-01 -2.501170946309773e-01 1.507577544912306e-01 -3.060927671439847e-01
            1.056612115079090e-01 -2.490943773434719e-02 1.039552542137458e-01 -2.282314944208632e-02 1.506537113000679e-01 -3.061763311777304e-01 -4.046039308602892e-01 -2.501539916331109e-01
            -4.045700953588890e-01 -2.501371916910823e-01 1.507812691707522e-01 -3.061275056755957e-01 1.046450821936924e-01 -2.466180569581418e-02 1.033953136096435e-01 -2.580648279265631e-02
            1.507406394354036e-01 -3.060769666146178e-01 -4.044885588801546e-01 -2.501848115480935e-01 1.033654918035228e-01 -2.588247960721834e-02 1.048789232350591e-01 -2.464837473051184e-02
541049207.6730608940 9.548203754035856e-02 -2.801340397387878e-02 9.690615488483664e-02 -3.029568736926106e-02 -4.392338643822159e-01 -1.854310313759896e-01 1.007283479957222e-01 -3.258876471784805e-01
            9.692990668355832e-02 -3.032602940425715e-02 9.536237249654678e-02 -2.806298022278787e-02 1.007708942738426e-01 -3.258597201343182e-01 -4.392138527059313e-01 -1.854481277939777e-01
            -4.392374450401729e-01 -1.854178260498470e-01 1.007912526618221e-01 -3.258446856250841e-01 9.603920864901867e-02 -3.010240838683857e-02 9.441482547351500e-02 -3.088548395026205e-02
            1.007839866889352e-01 -3.257949790506606e-01 -4.392425763568262e-01 -1.854821673146368e-01 9.440494489401652e-02 -3.088080036605396e-02 9.613673289132287e-02 -3.008945454706552e-02
541548790.6588823795 8.561747716306622e-02 -3.047061132597749e-02 8.693700829080023e-02 -3.274711228228087e-02 -4.639192705467517e-01 -1.157131274933940e-01 4.793527399370533e-02 -3.373120514756119e-01
            8.691611359263092e-02 -3.270165235013212e-02 8.562294736632151e-02 -3.054732586685106e-02 4.790928632245030e-02 -3.372718608913200e-01 -4.639195815434026e-01 -1.157266654317008e-01
            -4.639725431926699e-01 -1.157497501878204e-01 4.796699141419472e-02 -3.372774789286339e-01 8.614627402394716e-02 -3.252281538030077e-02 8.425379042551312e-02 -3.300802462574877e-02
            4.784287355135832e-02 -3.372264455921437e-01 -4.639592112308238e-01 -1.157861335782230e-01 8.431244713165137e-02 -3.301262951351396e-02 8.607242121691598e-02 -3.256353313060408e-02
542048373.6447039843 7.560769939759575e-02 -2.978220121935116e-02 7.652419395970408e-02 -3.185311745332712e-02 -4.779414766826439e-01 -4.264883935484889e-02 -6.201579835077492e-03 -3.400200694337201e-01
            7.646772271037398e-02 -3.182828063981610e-02 7.559996012728502e-02 -2.975459821672422e-02 -6.111963411887640e-03 -3.399986395241535e-01 -4.778739350211995e-01 -4.266144583841049e-02
            -4.778990685554079e-01 -4.266517910808010e-02 -6.229187140526430e-03 -3.399942275952491e-01 7.579615417025247e-02 -3.177796461161746e-02 7.389551680363082e-02 -3.185364983579264e-02
            -6.172714032145442e-03 -3.399950153037456e-01 -4.779011628679097e-01 -4.271801565050678e-02 7.389506023726652e-02 -3.178474895578307e-02 7.585748984131252e-02 -3.185755704825276e-02
542547956.6305254698 6.614381549971907e-02 -2.586406377334931e-02 6.696534619422954e-02 -2.780281216491230e-02 -4.805148292768948e-01 3.228846720078143e-02 -6.007819158465177e-02 -3.337622646555202e-01
            6.697225116680550e-02 -2.780190510153913e-02 6.624729411816020e-02 -2.582775797472501e-02 -6.007593708175489e-02 -3.337565280438751e-01 -4.804792631461920e-01 3.220561878678860e-02
            -4.804747254848102e-01 3.230104351738266e-02 -6.004462033427982e-02 -3.337777817311383e-01 6.619467582537322e-02 -2.779779642371704e-02 6.424831377017623e-02 -2.740916308999445e-02
            -6.003337845306174e-02 -3.338079740698529e-01 -4.804842025984081e-01 3.222804532584212e-02 6.433332658745401e-02 -2.738679815772591e-02 6.620209774874532e-02 -2.788476992302901e-02
543047539.6163469553 5.844154335720185e-02 -1.909873993115862e-02 5.915070308592759e-02 -2.091085444701651e-02 -4.711855785867416e-01 1.072813224138322e-01 -1.120456205913117e-01 -3.187293398514492e-01
            5.911860369242059e-02 -2.087688628032615e-02 5.851448018230557e-02 -1.902124911977569e-02 -1.121049077981006e-01 -3.187230791980358e-01 -4.712762094539339e-01 1.073089041338766e-01
            -4.712147185182891e-01 1.073146651310883e-01 -1.120294851581242e-01 -3.187583015675065e-01 5.824132806462646e-02 -2.099416921499626e-02 5.650390302851457e-02 -2.015631081426161e-02
            -1.120506751028622e-01 -3.187112354651727e-01 -4.712588527898765e-01 1.072795676785314e-01 5.645221668325916e-02 -2.019899990003259e-02 5.825907126010269e-02 -2.093356726781173e-02
543547122.6021684408 5.330835654893678e-02 -1.014556945637659e-02 5.386223323079643e-02 -1.177995970657207e-02 -4.500867412565697e-01 1.804267081638193e-01 -1.605228423006137e-01 -2.954206379686661e-01
            5.385673245144988e-02 -1.181257576721531e-02 5.336122246307803e-02 -1.015883011883772e-02 -1.604788118776066e-01 -2.954139793496804e-01 -4.500741710420234e-01 1.805371714974093e-01
            -4.500113719461289e-01 1.805037174671319e-01 -1.606057931060675e-01 -2.954542254664743e-01 5.292270860582193e-02 -1.198409858064838e-02 5.133137252997209e-02 -1.077844313685369e-02
            -1.605845540900452e-01 -2.953876628247681e-01 -4.499967816690797e-01 1.804810380383589e-01 5.134834659909934e-02 -1.080678036197573e-02 5.288078692562431e-02 -1.190869574846738e-02
544046705.5879900455 5.131648576108176e-02 2.245951680575049e-05 5.179149797123835e-02 -1.633950899208428e-03 -4.171768979881358e-01 2.498354773508924e-01 -2.041855576012544e-01 -2.647054163818009e-01
            5.169672959718646e-02 -1.575266733844403e-03 5.133633169768221e-02 -2.591845182928806e-05 -2.040861955875364e-01 -2.646629439460194e-01 -4.171869114797979e-01 2.498797235898114e-01
            -4.171927335807843e-01 2.498347140466732e-01 -2.041676235521881e-01 -2.646475454927724e-01 5.063873773893067e-02 -1.702000284516707e-03 4.945472079275096e-02 -1.905818211709243e-04
            -2.041459250029723e-01 -2.646895207385185e-01 -4.171664981665161e-01 2.498209470015691e-01 4.945603478458434e-02 -2.523590779843183e-04 5.070707485694373e-02 -1.714341561898143e-03
544546288.5738115311 5.262152169265343e-02 1.024201480899058e-02 5.314818181401054e-02 8.846881940475063e-03 -3.732840710787607e-01 3.131742135339612e-01 -2.418690526041399e-01 -2.276036947127975e-01
            5.315788995745142e-02 8.848961391018820e-03 5.264018031753591e-02 1.021195795554741e-02 -2.417842669130917e-01 -2.276379362296067e-01 -3.732820821798049e-01 3.132733614912167e-01
            -3.733257613159379e-01 3.133966200559846e-01 -2.417657903115912e-01 -2.276782073775502e-01 5.189226069391688e-02 8.785207958454121e-03 5.107247858205073e-02 1.038597953012316e-02
            -2.418294105457607e-01 -2.276172063105744e-01 -3.733116069712299e-01 3.132724923062157e-01 5.105957544375932e-02 1.039235755152758e-02 5.187446143685417e-02 8.809414775020757e-03
545045871.5596330166 5.714268406515393e-02 1.962898744390231e-02 5.764807268152729e-02 1.816192448651534e-02 -3.195491803020406e-01 3.688285584373112e-01 -2.726251972546704e-01 -1.855977125073395e-01
            5.768714485715538e-02 1.810902215409685e-02 5.726820418905547e-02 1.951588040432883e-02 -2.726676929307796e-01 -1.856568730351441e-01 -3.196317770887788e-01 3.688457556334312e-01
            -3.196053489021788e-01 3.690264014835163e-01 -2.726063029077285e-01 -1.855995048998719e-01 5.630013265110557e-02 1.821369420385289e-02 5.594149177981326e-02 1.993280297712485e-02
            -2.726332691930230e-01 -1.856375663343898e-01 -3.196268773613566e-01 3.688932442266035e-01 5.588315011767099e-02 2.001496536049970e-02 5.630479926380340e-02 1.823524368200108e-02
545545454.5454545021 6.439970743699142e-02 2.683963315577938e-02 6.496617461930955e-02 2.555381118229372e-02 -2.574883220677930e-01 4.150523888324489e-01 -2.960550238850571e-01 -1.398976178483514e-01
            6.490966526882705e-02 2.559070475653598e-02 6.450006973124009e-02 2.682481774802182e-02 -2.960403641999393e-01 -1.399035202866228e-01 -2.574552287829177e-01 4.151174774550631e-01
            -2.574222208443775e-01 4.151067194003675e-01 -2.961069702820637e-01 -1.399064925807828e-01 6.347674818441934e-02 2.589050176858207e-02 6.348723542048372e-02 2.752383434690227e-02
            -2.960734116453127e-01 -1.397937974943457e-01 -2.574708804413503e-01 4.151816517822896e-01 6.347131277863033e-02 2.746579384958905e-02 6.346344337900757e-02 2.588711637239857e-02
546045037.5312761068 7.350154164408136e-02 3.157619208808934e-02 7.412560535815269e-02 3.026737976533554e-02 -1.887979983709794e-01 4.505350863261620e-01 -3.120088331023338e-01 -9.177931898355110e-02
            7.412698220392867e-02 3.018525896645973e-02 7.356815972757379e-02 3.158993900949882e-02 -3.119860340740104e-01 -9.178502876751139e-02 -1.887317065195247e-01 4.506317825331812e-01
            -1.888030333342639e-01 4.506202655035183e-01 -3.120840440774160e-01 -9.180588207354937e-02 7.257341207383637e-02 3.068427344195732e-02 7.286898904993921e-02 3.220412596727319e-02
            -3.120667088411712e-01 -9.173423746008791e-02 -1.888365296685630e-01 4.505790651560188e-01 7.299444688028578e-02 3.220728704736385e-02 7.255648410978313e-02 3.069667420714259e-02
546544620.5170975924 8.364045337409540e-02 3.310604317062849e-02 8.435269304462215e-02 3.178506273063535e-02 -1.155775617871248e-01 4.744230995374183e-01 -3.203142763798967e-01 -4.239198656508011e-02
            8.430835086809677e-02 3.171037704589819e-02 8.356159558563946e-02 3.306477464365552e-02 -3.204337218161725e-01 -4.235733873610232e-02 -1.155818346417625e-01 4.744897285982869e-01
            -1.155485930405194e-01 4.743676652153551e-01 -3.204357100580767e-01 -4.243896074255700e-02 8.274637270047018e-02 3.248124360045163e-02 8.336854117192814e-02 3.374633421623488e-02
            -3.203220106318553e-01 -4.241215537377636e-02 -1.155824314123700e-01 4.743961634565146e-01 8.342282366304235e-02 3.373565618857763e-02 8.279784163477884e-02 3.246815437778847e-02
547044203.5029190779 9.364531952554926e-02 3.148857910898838e-02 9.447819481047204e-02 3.001174196860404e-02 -3.972406859176345e-02 4.862774677078298e-01 -3.213791064292900e-01 7.212575388838384e-03
            9.446269462112626e-02 2.994038917097494e-02 9.367479751097188e-02 3.148728311515225e-02 -3.214152227752933e-01 7.131453038944877e-03 -3.971496165234661e-02 4.861767954726253e-01
            -3.976174533811993e-02 4.862917772162164e-01 -3.213661577242983e-01 7.109205104872942e-03 9.283000981915117e-02 3.108294757351229e-02 9.362839914340544e-02 3.194812743543859e-02
            -3.213874377411018e-01 7.142011184565655e-03 -3.973401871788655e-02 4.862367657499022e-01 9.362436563298250e-02 3.197748707824464e-02 9.272418044986121e-02 3.108490739519875e-02
547543786.4887406826 1.025895577753116e-01 2.682380385363229e-02 1.033678656419458e-01 2.525789942927330e-02 3.656073295510812e-02 4.860282373751053e-01 -3.151460123018859e-01 5.591737925170497e-02
            1.033743544364954e-01 2.525671387268914e-02 1.026449592930128e-01 2.681152823930277e-02 -3.151726764787908e-01 5.591271591408351e-02 3.653660590930627e-02 4.859699242650905e-01
            3.651873185525260e-02 4.860260199338672e-01 -3.151202414960841e-01 5.597467792588549e-02 1.019128796022866e-01 2.657868896928169e-02 1.028790457748679e-01 2.715847754239445e-02
            -3.151664791979312e-01 5.585700261549212e-02 3.656250773289682e-02 4.860360987624374e-01 1.028801469390800e-01 2.708332735313402e-02 1.018168710243937e-01 2.659642483093183e-02
548043369.4745621681 1.096933020586934e-01 1.965229917729874e-02 1.103561130144944e-01 1.799795388558692e-02 1.114809211345060e-01 4.740175538037723e-01 -3.018376829582596e-01 1.031103782364522e-01
            1.103539166534298e-01 1.791198439466502e-02 1.096510312477260e-01 1.974685056502815e-02 -3.019567909482607e-01 1.029883395764578e-01 1.114521504574542e-01 4.740229459965726e-01
            1.114673188861206e-01 4.740204376820490e-01 -3.018180558002697e-01 1.030370568385462e-01 1.090264866347271e-01 1.961764578485114e-02 1.100703367400306e-01 1.974904858139418e-02
            -3.018650963569988e-01 1.030138338747594e-01 1.115103845595329e-01 4.740426502207102e-01 1.100317024985536e-01 1.976014980464540e-02 1.090995884949748e-01 1.962599918902487e-02
548542952.4603836536 1.141719994573382e-01 1.072262052504015e-02 1.148170589531763e-01 8.902786182807921e-03 1.833449197084881e-01 4.508497195471621e-01 -2.819237414264292e-01 1.477297057446557e-01
            1.148280413627683e-01 8.864591371736459e-03 1.142741979528248e-01 1.074447640996229e-02 -2.819310725751419e-01 1.477322572755832e-01 1.832839803597576e-01 4.507485167083444e-01
            1.832869835706095e-01 4.508253800789594e-01 -2.818666074896498e-01 1.476719225695949e-01 1.138060136042612e-01 1.082573944002487e-02 1.146228295236571e-01 1.059787709997881e-02
            -2.819189511691391e-01 1.477403331507075e-01 1.833222279057243e-01 4.507732078284097e-01 1.146869054208675e-01 1.057315287793331e-02 1.138093506952612e-01 1.087430719873832e-02
549042535.4462051392 1.158435465470605e-01 9.088318017575437e-04 1.163005305069834e-01 -1.098928567660694e-03 2.505342303999246e-01 4.171328947199421e-01 -2.554551570260757e-01 1.889447556320904e-01
            1.163551217683441e-01 -9.877874385878312e-04 1.158507525110986e-01 8.826040591627834e-04 -2.554786740593509e-01 1.890037327508007e-01 2.506221167047475e-01 4.170297028344621e-01
            2.505906826459682e-01 4.170795770099924e-01 -2.555320856483363e-01 1.890265986045437e-01 1.154316293385436e-01 1.031604885404221e-03 1.162178657086580e-01 5.712401342405633e-04
            -2.554801583862509e-01 1.889766976314092e-01 2.506091835605184e-01 4.170762686782467e-01 1.162679050062533e-01 5.272383591443328e-04 1.155507681410619e-01 1.020189803198358e-03
549542118.4320267439 1.143593545432761e-01 -8.931542909134983e-03 1.146922007628026e-01 -1.110666716846257e-02 3.118175935007221e-01 3.737413889264060e-01 -2.230099762156579e-01 2.258983646971642e-01
            1.147179026620402e-01 -1.106064677386769e-02 1.143805599876905e-01 -8.851561052303119e-03 -2.230542322812057e-01 2.259447255898500e-01 3.118189401068407e-01 3.737155812090620e-01
            3.118238699050858e-01 3.737613021553926e-01 -2.230185482515564e-01 2.259404768781934e-01 1.142275627485983e-01 -8.738798212853777e-03 1.146835782051167e-01 -9.584508148075111e-03
            -2.230140717831597e-01 2.259404779166303e-01 3.119246808678487e-01 3.737534025674620e-01 1.147063195503270e-01 -9.526314649961119e-03 1.142270347422872e-01 -8.722994485826889e-03
550041701.4178482294 1.100126122803583e-01 -1.789328656834780e-02 1.100876416476613e-01 -2.008879210837089e-02 3.658895391451036e-01 3.217667254022175e-01 -1.850339048078578e-01 2.576851255863133e-01
            1.100640381408001e-01 -2.002491356534011e-02 1.099866261677165e-01 -1.789677756675421e-02 -1.851134012099670e-01 2.576920359427676e-01 3.659307520886442e-01 3.217028060566928e-01
            3.660098286992139e-01 3.217637719869877e-01 -1.850193616378755e-01 2.577391946909980e-01 1.101112251905187e-01 -1.776706933956759e-02 1.101030337218490e-01 -1.870341481891392e-02
            -1.850091458171452e-01 2.577709737056306e-01 3.659128865820965e-01 3.216931011133889e-01 1.100955757661549e-01 -1.873608129859549e-02 1.101092745919833e-01 -1.775418718017832e-02
550541284.4036697149 1.029836027079468e-01 -2.511045004226776e-02 1.028865490418661e-01 -2.728753534095129e-02 4.117133197090692e-01 2.621049690752371e-01 -1.424254253617794e-01 2.833559450127185e-01
            1.029094882901824e-01 -2.728652554504640e-02 1.029841385589941e-01 -2.506940610391827e-02 -1.424036422617392e-01 2.833911012114914e-01 4.117858974662634e-01 2.619987223777063e-01
            4.117676699655425e-01 2.620879028764417e-01 -1.423277591765584e-01 2.834448931604379e-01 1.033304782796675e-01 -2.498906880314090e-02 1.029662086625460e-01 -2.599497854150483e-02
            -1.423881328812531e-01 2.833372594860375e-01 4.117517040064643e-01 2.619872146011871e-01 1.029621754516791e-01 -2.605090789013241e-02 1.033232928935535e-01 -2.508055823837161e-02
551040867.3894912004 9.414021082464387e-02 -2.988439728075834e-02 9.376362068419548e-02 -3.194808074405932e-02 4.482968275458838e-01 1.960170796481399e-01 -9.586168934638413e-02 3.020666009437671e-01
            9.375790702138262e-02 -3.206868678581682e-02 9.413113087482883e-02 -2.984654760639920e-02 -9.577187400021488e-02 3.020225063905512e-01 4.482917585071606e-01 1.960586052410357e-01
            4.482146282257480e-01 1.960027553330963e-01 -9.584745318127817e-02 3.020116225910334e-01 9.459050264503195e-02 -2.984210048743738e-02 9.391383703076117e-02 -3.083517258507057e-02
            -9.586141851465513e-02 3.019879687736961e-01 4.482303254848384e-01 1.960916869551452e-01 9.382836609760671e-02 -3.080583927268656e-02 9.457708312470481e-02 -2.976311393378163e-02
551540450.3753128052 8.417294654121379e-02 -3.159767224149114e-02 8.356559963068123e-02 -3.368972482888757e-02 4.745627003060375e-01 1.247523590954112e-01 -4.674516243502349e-02 3.129622030582752e-01
            8.360206678421099e-02 -3.373982199758483e-02 8.421010221617845e-02 -3.158624078205035e-02 -4.670858094812141e-02 3.128787712071464e-01 4.745595748251799e-01 1.248647169949785e-01
            4.745913174234581e-01 1.248817427311830e-01 -4.678598013282696e-02 3.129707870906000e-01 8.469653865694474e-02 -3.177054118286934e-02 8.371454974678573e-02 -3.249131209365133e-02
            -4.670492321726379e-02 3.129280191774371e-01 4.745835070666214e-01 1.247860022829590e-01 8.367950183138410e-02 -3.251330704121282e-02 8.468343920464615e-02 -3.176433004288898e-02
552040033.3611342907 7.410713507625104e-02 -3.017238511438571e-02 7.329333272045101e-02 -3.217822641561799e-02 4.897151610151466e-01 4.992091395728095e-02 3.649228315646096e-03 3.156826418574346e-01
            7.329349219897702e-02 -3.216809309254653e-02 7.412151927139130e-02 -3.015753704714020e-02 3.632471936680461e-03 3.155916609771749e-01 4.897714138704684e-01 4.994088747324264e-02
            4.898174720692476e-01 4.986725544433136e-02 3.645103892214708e-03 3.157831531744219e-01 7.475086653375022e-02 -3.041763600028329e-02 7.347204447700501e-02 -3.097276571694857e-02
            3.601083123766299e-03 3.156723518728797e-01 4.896822235039153e-01 4.997736042173721e-02 7.350101343139301e-02 -3.090477692536390e-02 7.468799336134184e-02 -3.047737725751670e-02
552539616.3469557762 6.489885815664180e-02 -2.559980167678043e-02 6.401688226820554e-02 -2.749162616144078e-02 4.932567515497694e-01 -2.706713206831985e-02 5.371521107262386e-02 3.099929130703169e-01
            6.396636335754172e-02 -2.739332571874766e-02 6.496125774738049e-02 -2.556672605440912e-02 5.370783028481639e-02 3.100843202013463e-01 4.932117021090606e-01 -2.705202877949391e-02
            4.931892142490243e-01 -2.707085443272512e-02 5.384611529699871e-02 3.100025076412246e-01 6.559519356892482e-02 -2.604134809360490e-02 6.410821624247089e-02 -2.624305310456666e-02
            5.376981741095087e-02 3.100613387956098e-01 4.931827608728583e-01 -2.703573053691713e-02 6.411878657519755e-02 -2.628550111858300e-02 6.564125192877497e-02 -2.601777011592422e-02
553039199.3327773809 5.765267202305430e-02 -1.827285831074932e-02 5.659165220590547e-02 -1.995587929076000e-02 4.844920698113587e-01 -1.042274419252356e-01 1.020527012053296e-01 2.961008899263895e-01
            5.652131837558096e-02 -1.999603712683369e-02 5.774613873193711e-02 -1.834184557924459e-02 1.021480801264517e-01 2.962290794755049e-01 4.844955216489322e-01 -1.041162516905970e-01
            4.845079003447982e-01 -1.041666806932299e-01 1.020870699574476e-01 2.961698883725934e-01 5.836822281574679e-02 -1.903280024818355e-02 5.677853691484160e-02 -1.879348487789760e-02
            1.020630857289564e-01 2.962195286427698e-01 4.845771826415184e-01 -1.042880527783826e-01 5.672165126732017e-02 -1.889196433697753e-02 5.835390904599153e-02 -1.892710650770145e-02
553538782.3185988665 5.303565417432938e-02 -9.064924486573367e-03 5.191836139373023e-02 -1.058097981595873e-02 4.634932222730875e-01 -1.795333722518027e-01 1.471690280098424e-01 2.745624575671360e-01
            5.192242413409586e-02 -1.070019241060522e-02 5.301855683782034e-02 -9.076876963610607e-03 1.471039316460975e-01 2.745628153280359e-01 4.635738985593297e-01 -1.795539773590394e-01
            4.635228932412983e-01 -1.796266402393027e-01 1.470868624363389e-01 2.746106715866443e-01 5.374796674022080e-02 -9.997801053836729e-03 5.214906120852786e-02 -9.354669085218393e-03
            1.471614575596741e-01 2.745594865704458e-01 4.635498908693254e-01 -1.795901393178328e-01 5.215484183566596e-02 -9.431734795030084e-03 5.371940507036031e-02 -9.931155706555169e-03
554038365.3044203520 5.159090444214407e-02 1.141508678704331e-03 5.038882452951692e-02 -1.269338270333511e-04 4.305648845890631e-01 -2.509951217412735e-01 1.875864203319416e-01 2.462284942188385e-01
            5.037117364161213e-02 -2.182851800538455e-04 5.162764250038845e-02 1.178768501330435e-03 1.876337493476577e-01 2.461922872745232e-01 4.305159752085647e-01 -2.509827298246000e-01
            4.305221392173508e-01 -2.509569953778842e-01 1.876563814024719e-01 2.461533760644159e-01 5.214480648552136e-02 1.181290520483593e-04 5.067327937479277e-02 1.121201062655314e-03
            1.875869618426679e-01 2.461113373635726e-01 4.304718420664431e-01 -2.509933431050277e-01 5.066583295970011e-02 1.064710326548594e-03 5.219418744121286e-02 2.083714286424344e-04
554537948.2902418375 5.357343023173085e-02 1.134101479923590e-02 5.232511997707921e-02 1.012554833410516e-02 3.862073842806577e-01 -3.163812982112356e-01 2.224595160732269e-01 2.120391343195210e-01
            5.235706206929403e-02 1.014468676541509e-02 5.355827066287427e-02 1.134617300184739e-02 2.225030257504201e-01 2.119656393238589e-01 3.862166195402847e-01 -3.164075406374807e-01
            3.862252087950845e-01 -3.163529346186530e-01 2.224902392755913e-01 2.119821381546459e-01 5.394155089023576e-02 1.019219643764286e-02 5.266825430693851e-02 1.140573948805925e-02
            2.225185456010949e-01 2.118933668537579e-01 3.861683608666938e-01 -3.163851497857572e-01 5.263477640163653e-02 1.140417057360495e-02 5.388359985528608e-02 1.018661349853548e-02
555037531.2760634422 5.851775426988170e-02 2.033947504309900e-02 5.744901327829509e-02 1.930409086406626e-02 3.317222237713898e-01 -3.738299209494145e-01 2.509734641270368e-01 1.731826747798317e-01
            5.735589075198386e-02 1.926445545353368e-02 5.861640958541615e-02 2.043955311663626e-02 2.510353588067046e-01 1.731441468568630e-01 3.317762675185130e-01 -3.738125479714358e-01
            3.316982995807847e-01 -3.738541524596062e-01 2.510481585197205e-01 1.731427209146095e-01 5.885234096811968e-02 1.908479632170512e-02 5.779536462358861e-02 2.049254585994494e-02
            2.510833501936458e-01 1.732104019640063e-01 3.317836192632132e-01 -3.738181950790190e-01 5.785036548342695e-02 2.056447020998203e-02 5.875555214293809e-02 1.904874427105268e-02
555537114.2618849277 6.618603724311993e-02 2.730049480815770e-02 6.503805870882584e-02 2.623696138219149e-02 2.687769606391415e-01 -4.217016992143266e-01 2.728165526827485e-01 1.310712098147494e-01
            6.509452544480838e-02 2.634088150771113e-02 6.625510431625038e-02 2.727132362424752e-02 2.728327956539681e-01 1.310968408578605e-01 2.687080170206973e-01 -4.217566792898845e-01
            2.687087535633346e-01 -4.216714216787147e-01 2.728350780697850e-01 1.309745864286267e-01 6.630164849938161e-02 2.598608383667014e-02 6.566533017902237e-02 2.758428752893303e-02
            2.728186553590767e-01 1.310285005688951e-01 2.686415236306474e-01 -4.217180840931380e-01 6.568496257679415e-02 2.758413103332661e-02 6.629488546410683e-02 2.594276486570682e-02
556036697.2477064133 7.554831441684522e-02 3.145644414698936e-02 7.453408905111578e-02 3.055355524622806e-02 1.988843614831162e-01 -4.586960673504425e-01 2.876970405705797e-01 8.671724961866505e-02
            7.449552521160159e-02 3.051049721914176e-02 7.558604431203300e-02 3.143016981067121e-02 2.876818890338360e-01 8.670406299749456e-02 1.989228632607915e-01 -4.587380116691980e-01
            1.988789156416683e-01 -4.587225655758754e-01 2.877003834102209e-01 8.675027491186799e-02 7.544528265227578e-02 3.002730443391920e-02 7.518751142209409e-02 3.173898061383957e-02
            2.876221418796923e-01 8.678610642059896e-02 1.989163007389943e-01 -4.587058777579102e-01 7.520982356754129e-02 3.167728964623619e-02 7.545194461964347e-02 3.003954327626841e-02
556536280.2335278988 8.567872532352162e-02 3.243047046739602e-02 8.465316528306385e-02 3.155251790282948e-02 1.243135893434019e-01 -4.838859852783287e-01 2.956910723956268e-01 4.124818909566381e-02
            8.461901231790669e-02 3.149790769248816e-02 8.567268881661008e-02 3.243843405153250e-02 2.956429139147685e-01 4.121762582300654e-02 1.243467507677543e-01 -4.839401420684441e-01
            1.242706267745079e-01 -4.839146246670487e-01 2.955898898870448e-01 4.131021100572576e-02 8.537988731194698e-02 3.107366140026009e-02 8.551602431187230e-02 3.269398733656899e-02
            2.956630962231033e-01 4.132580876815133e-02 1.242749044460292e-01 -4.838956900841331e-01 8.546178362593923e-02 3.270651168975003e-02 8.545754612016210e-02 3.108370165711358e-02
557035863.2193495035 9.555494364407954e-02 3.030931705605773e-02 9.462322996454399e-02 2.938093037397541e-02 4.707531505715625e-02 -4.969130832521692e-01 2.967891564357480e-01 -4.369855779645138e-03
            9.463287190052543e-02 2.930270267978869e-02 9.563829719402583e-02 3.026768243880398e-02 2.968275205352950e-01 -4.372095857062952e-03 4.701270776039900e-02 -4.968896045818980e-01
            4.707460155641496e-02 -4.969341971175810e-01 2.968185400919283e-01 -4.403437850734647e-03 9.500152175052055e-02 2.899708057846467e-02 9.552930197504403e-02 3.048485851613553e-02
            2.968047801165358e-01 -4.395804420994297e-03 4.709797921584502e-02 -4.968916099887042e-01 9.559325858575057e-02 3.054172564587303e-02 9.508804690306882e-02 2.902284275184769e-02
557535446.2051709890 1.043126591791730e-01 2.519308389941386e-02 1.032016955147891e-01 2.416644902021418e-02 -3.088156556887960e-02 -4.976987421003681e-01 2.913443257334051e-01 -4.941666071442119e-02
            1.032917156974747e-01 2.418555947806019e-02 1.043441130350047e-01 2.512626757555347e-02 2.913651299194481e-01 -4.940943825920646e-02 -3.088920822006404e-02 -4.976985184256822e-01
            -3.097103061423914e-02 -4.976461093316478e-01 2.913180761134708e-01 -4.948187423762094e-02 1.035746532688543e-01 2.397670780481671e-02 1.042906790032809e-01 2.525539396178811e-02
            2.913753054707614e-01 -4.945750236337415e-02 -3.097745915790018e-02 -4.976703947872346e-01 1.043583141550855e-01 2.529491174928170e-02 1.035612672989864e-01 2.403530227458009e-02
558035029.1909924746 1.109309860084201e-01 1.776715947868838e-02 1.099330431494465e-01 1.668044032725961e-02 -1.075913755408534e-01 -4.864096877547407e-01 2.793922362706416e-01 -9.306138375258045e-02
            1.099167149054230e-01 1.666553779266788e-02 1.109127024683115e-01 1.768160895865328e-02 2.794724642962304e-01 -9.299817650247927e-02 -1.076309798274854e-01 -4.863515924557338e-01
            -1.076085395399602e-01 -4.863868077783672e-01 2.794639909115720e-01 -9.304760277807370e-02 1.101298137886939e-01 1.670619115400340e-02 1.110535721924018e-01 1.765023143130656e-02
            2.793676351527121e-01 -9.304329628047757e-02 -1.076475743703138e-01 -4.863997052373440e-01 1.109932115232218e-01 1.760108018659379e-02 1.100541324170900e-01 1.673734832380230e-02
558534612.1768140793 1.148971072032806e-01 8.666728829428585e-03 1.138513839292984e-01 7.452468953992918e-03 -1.813870497272328e-01 -4.636360765142741e-01 2.613119611396982e-01 -1.343434760936893e-01
            1.138389826798309e-01 7.495960565921439e-03 1.149401167125907e-01 8.667511038288472e-03 2.612749101255555e-01 -1.345358975960242e-01 -1.814293699897901e-01 -4.637075589317404e-01
            -1.814812933516619e-01 -4.636744346106405e-01 2.612574159165649e-01 -1.344491236788337e-01 1.140071553925475e-01 7.811879869536624e-03 1.151455834143064e-01 8.362314596552635e-03
            2.613136637713733e-01 -1.344021847016198e-01 -1.814048145713590e-01 -4.636331416246348e-01 1.151386925569796e-01 8.407083788741361e-03 1.140515723695038e-01 7.703054619177006e-03
559034195.1626355648 1.160560899865003e-01 -1.099096016921542e-03 1.148061832545651e-01 -2.446994301052475e-03 -2.506405449474254e-01 -4.301301320947952e-01 2.371304951740824e-01 -1.727097616472502e-01
            1.148683086515482e-01 -2.356341933119113e-03 1.161027761752317e-01 -1.244381157638092e-03 2.371233411337487e-01 -1.727227461384147e-01 -2.507002228516947e-01 -4.300482043363712e-01
            -2.507112073743550e-01 -4.300798859858052e-01 2.370862418660847e-01 -1.727505571321013e-01 1.150406247062403e-01 -1.956977359297694e-03 1.161990556299274e-01 -1.654743635519178e-03
            2.370874259494034e-01 -1.727728525961338e-01 -2.506086753018534e-01 -4.301069266044849e-01 1.162317585612079e-01 -1.633809683529932e-03 1.150030337033622e-01 -1.987219829943266e-03
559533778.1484570503 1.142245506974089e-01 -1.101071433069377e-02 1.126173701029096e-01 -1.211942507022975e-02 -3.139328880713746e-01 -3.866263466310270e-01 2.073037999833801e-01 -2.070981728964422e-01
            1.127502616354371e-01 -1.215659410782527e-02 1.141741119671911e-01 -1.090983259336094e-02 2.073591760546053e-01 -2.071720068981732e-01 -3.140134811045220e-01 -3.865842504171382e-01
            -3.139419002098650e-01 -3.865875273414325e-01 2.073331015372196e-01 -2.071518039653291e-01 1.130840088957579e-01 -1.147572858475691e-02 1.141733662614932e-01 -1.155939015228015e-02
            2.073820975897531e-01 -2.071439414064823e-01 -3.139558356147602e-01 -3.865858784178424e-01 1.142504714967005e-01 -1.157658653708760e-02 1.130233409803024e-01 -1.146144215749578e-02
560033361.1342785358 1.092903064433041e-01 -1.967709412339368e-02 1.077333035985535e-01 -2.082618553748554e-02 -3.701784671952302e-01 -3.342054541068988e-01 1.723860340532076e-01 -2.367771973554450e-01
            1.077833247435415e-01 -2.076643551766556e-02 1.093431663064956e-01 -1.959415538367398e-02 1.724262537145371e-01 -2.367975910107356e-01 -3.700040121102049e-01 -3.341272701509085e-01
            -3.700213460855070e-01 -3.341702914688706e-01 1.724316356072073e-01 -2.367678949846207e-01 1.082144712174075e-01 -1.994272780010053e-02 1.092945926553609e-01 -2.039764329982635e-02
            1.724666077224221e-01 -2.368015435795092e-01 -3.700752668598749e-01 -3.341029076884884e-01 1.091833448647321e-01 -2.037187140875654e-02 1.082203823630963e-01 -1.992990967785649e-02
560532944.1201001406 1.020304340588692e-01 -2.654883459543024e-02 1.002652784241017e-01 -2.751132065747264e-02 -4.178423357488715e-01 -2.736084763883366e-01 1.330148573283671e-01 -2.606550017383688e-01
            1.001816483167343e-01 -2.759075139322405e-02 1.020750347332661e-01 -2.644893421837483e-02 1.330481358799634e-01 -2.607473112442699e-01 -4.177873277301656e-01 -2.737005434324462e-01
            -4.177817611790980e-01 -2.736841044252776e-01 1.330606022290014e-01 -2.606623113754661e-01 1.009964034066090e-01 -2.656843872701279e-02 1.017276370832836e-01 -2.731789851104501e-02
            1.330691024129524e-01 -2.607682745472368e-01 -4.177925903132907e-01 -2.737279841374169e-01 1.018386515807484e-01 -2.731244824474548e-02 1.009725736301060e-01 -2.658189630901972e-02
561032527.1059216261 9.305394880072138e-02 -3.078114433838489e-02 9.093165306392403e-02 -3.174373537569333e-02 -4.560822236024090e-01 -2.064435181166929e-01 9.009687612314875e-02 -2.781593728522394e-01
            9.101093311051832e-02 -3.176921126136144e-02 9.309319744698780e-02 -3.069635632767588e-02 9.011318959583797e-02 -2.781050973983129e-01 -4.560985160879249e-01 -2.064415934347946e-01
            -4.560005578547173e-01 -2.065504557447073e-01 9.009205421219495e-02 -2.781834270505141e-01 9.205668462781734e-02 -3.064187025613900e-02 9.256863513367548e-02 -3.166829130232814e-02
            9.009216673821314e-02 -2.781669005956670e-01 -4.561120649344131e-01 -2.064440979079630e-01 9.256780670205336e-02 -3.159414918053255e-02 9.205652385526103e-02 -3.070856032048615e-02
561532110.0917431116 8.306720244331792e-02 -3.198296558434442e-02 8.082042359977384e-02 -3.272129428193669e-02 -4.838092571999796e-01 -1.338481927365719e-01 4.461625931585704e-02 -2.884144043385621e-01
            8.086639520194613e-02 -3.279825183507840e-02 8.314039625279912e-02 -3.203919363759374e-02 4.466870426450501e-02 -2.883742122230947e-01 -4.838337733261223e-01 -1.338832430099211e-01
            -4.838565841278561e-01 -1.338569318460590e-01 4.470508387814536e-02 -2.884367713587079e-01 8.218713214710738e-02 -3.175038833590342e-02 8.237491397527394e-02 -3.281780504556418e-02
            4.459623533683570e-02 -2.884103747697059e-01 -4.838960449471578e-01 -1.339388279641034e-01 8.241604109927135e-02 -3.289213656766966e-02 8.219938838548861e-02 -3.181006185006890e-02
562031693.0775645971 7.311184218327807e-02 -3.014880424922915e-02 7.075718619136483e-02 -3.064783783869187e-02 -5.002846006852091e-01 -5.724108494963188e-02 -1.820954066939657e-03 -2.910441918978177e-01
            7.076727304446509e-02 -3.061479043983593e-02 7.306152248449278e-02 -3.011679180562361e-02 -1.899269023471144e-03 -2.909482086690361e-01 -5.002873270790862e-01 -5.741298709734263e-02
            -5.002909029577647e-01 -5.737924949558248e-02 -1.900285657883069e-03 -2.909105576538511e-01 7.246390978814714e-02 -2.974128475666090e-02 7.232097151702056e-02 -3.087231209391335e-02
            -1.812487772623566e-03 -2.909527485405747e-01 -5.003925496031489e-01 -5.733360716046310e-02 7.231570928346930e-02 -3.087797735671801e-02 7.240130745987074e-02 -2.971452045894065e-02
562531276.0633862019 6.427102592098066e-02 -2.524238577655278e-02 6.178317040702910e-02 -2.544725319373495e-02 -5.047833831019932e-01 2.145944447286252e-02 -4.832941727117573e-02 -2.857292907071139e-01
            6.191349680262972e-02 -2.540815772717270e-02 6.423707367712581e-02 -2.525408400076124e-02 -4.821941962385479e-02 -2.857771428072521e-01 -5.047847166882322e-01 2.139849667467279e-02
            -5.047966577796078e-01 2.139914968200901e-02 -4.819699211419492e-02 -2.858094553393477e-01 6.374221983400699e-02 -2.475162411237487e-02 6.336685360250850e-02 -2.587570563162951e-02
            -4.822734862604336e-02 -2.857817501227723e-01 -5.047415137977973e-01 2.145957228822376e-02 6.324987761279879e-02 -2.588662539265506e-02 6.376739462393859e-02 -2.463259453781625e-02
563030859.0492076874 5.751486826828042e-02 -1.774729858660334e-02 5.493202129940391e-02 -1.760913124541924e-02 -4.965968079022576e-01 1.005471278391672e-01 -9.276938117474498e-02 -2.729771539592273e-01
            5.491720838675167e-02 -1.758403384309530e-02 5.744671345862817e-02 -1.766833929546380e-02 -9.277834830863226e-02 -2.729452609737427e-01 -4.966782228651092e-01 1.004942893790908e-01
            -4.966199890084508e-01 1.004936040181083e-01 -9.268993241907336e-02 -2.729639078652593e-01 5.708763566901332e-02 -1.715674953840612e-02 5.635597033727337e-02 -1.811746443660646e-02
            -9.270717408810167e-02 -2.729311867194397e-01 -4.966136082838934e-01 1.005252814919188e-01 5.641652060022057e-02 -1.820246244221218e-02 5.708549357206456e-02 -1.719366142546139e-02
563530442.0350291729 5.332918914653592e-02 -8.396443334061525e-03 5.087246681132575e-02 -8.024431541218166e-03 -4.758836780414649e-01 1.777785162456446e-01 -1.342309725363642e-01 -2.531542195056330e-01
            5.088967960363644e-02 -8.029033243070836e-03 5.341411230749418e-02 -8.366674725962097e-03 -1.341653784275476e-01 -2.531302849718460e-01 -4.759554726028728e-01 1.777933283561351e-01
            -4.759215978430673e-01 1.778828131519384e-01 -1.341798295523660e-01 -2.531130394873200e-01 5.320330797752775e-02 -7.856386554959656e-03 5.225423504065794e-02 -8.678387135718975e-03
            -1.342394702350349e-01 -2.531385721420621e-01 -4.759813224328772e-01 1.778088814316881e-01 5.209040096159163e-02 -8.735739669581011e-03 5.319941277951109e-02 -7.865449563013271e-03
564030025.0208507776 5.245332404990279e-02 1.673821494441471e-03 5.004334218530184e-02 2.457634348546452e-03 -4.429642349749108e-01 2.511495515608639e-01 -1.713949632605862e-01 -2.269271372308458e-01
            5.002365718252556e-02 2.449990522276973e-03 5.242877925260495e-02 1.764881342202846e-03 -1.714415629506472e-01 -2.268574614425449e-01 -4.429909670355412e-01 2.510873946045696e-01
            -4.429537151467773e-01 2.510937019243490e-01 -1.714407368168090e-01 -2.269890451200453e-01 5.234356137634220e-02 2.332493759708694e-03 5.120762687466921e-02 1.563879298781040e-03
            -1.714446345931881e-01 -2.269138382543739e-01 -4.428666809819733e-01 2.511433832578912e-01 5.129272229478990e-02 1.507596968709864e-03 5.235762569015803e-02 2.215961203565327e-03
564529608.0066722631 5.476264415915211e-02 1.163359792724907e-02 5.253945282077568e-02 1.259540144817636e-02 -3.983099676795679e-01 3.183662265219012e-01 -2.034261487573082e-01 -1.956002875785071e-01
            5.251785137738042e-02 1.264106076913516e-02 5.476860183738075e-02 1.160092294107118e-02 -2.033833477359459e-01 -1.955990054531628e-01 -3.982831968342336e-01 3.183588645319195e-01
            -3.983559097789757e-01 3.183231801783999e-01 -2.034200786304330e-01 -1.955730853124684e-01 5.495665548172306e-02 1.213926452898917e-02 5.369580261783295e-02 1.151420471312780e-02
            -2.033677152181994e-01 -1.954949229982704e-01 -3.983005260000890e-01 3.182990154619602e-01 5.367501128223576e-02 1.157355095135811e-02 5.489161717064250e-02 1.207629373795830e-02
565029190.9924937487 6.013060428380951e-02 2.016691049755133e-02 5.805752292696942e-02 2.140476369977976e-02 -3.433764352179342e-01 3.775560243876681e-01 -2.295685461283979e-01 -1.599720582334911e-01
            5.802754218014620e-02 2.145282361057120e-02 6.013175011804414e-02 2.021396546691908e-02 -2.296027162620368e-01 -1.599552764847963e-01 -3.432759708499382e-01 3.775379053531943e-01
            -3.433009260070669e-01 3.776085901552952e-01 -2.295868156594118e-01 -1.599639976673792e-01 6.044561524301831e-02 2.049354886990573e-02 5.910599150477275e-02 2.022162776828530e-02
            -2.295932357570334e-01 -1.599393348889376e-01 -3.433769954080505e-01 3.775967352310233e-01 5.908658134116429e-02 2.026799836531500e-02 6.044291163927147e-02 2.052630647914788e-02
565528773.9783152342 6.791143240696550e-02 2.651597968861755e-02 6.613189364490263e-02 2.803432567690324e-02 -2.795954444819514e-01 4.271125071007313e-01 -2.495785769127130e-01 -1.213644143495007e-01
            6.604569215309185e-02 2.800004803353986e-02 6.793032938328654e-02 2.654675005034499e-02 -2.496281132150479e-01 -1.214282182437468e-01 -2.795579883561958e-01 4.270593062474600e-01
            -2.795614117009431e-01 4.270140819729741e-01 -2.495624329732618e-01 -1.214362141610656e-01 6.832682875884413e-02 2.681360874317400e-02 6.695722708145539e-02 2.674463132799483e-02
            -2.495559085215324e-01 -1.214327509248707e-01 -2.795903341016017e-01 4.270853282767109e-01 6.701920855694972e-02 2.672142981091874e-02 6.826310359506026e-02 2.670536377835247e-02
566028356.9641368389 7.723550154523774e-02 3.009148676678707e-02 7.569846791265436e-02 3.163406073346373e-02 -2.088275264235872e-01 4.655100091073044e-01 -2.632532453580003e-01 -8.082961786486907e-02
            7.566665152563874e-02 3.171043531793993e-02 7.722091575152285e-02 3.017814434107362e-02 -2.632888703961912e-01 -8.084756185459956e-02 -2.088334486662601e-01 4.654368624014506e-01
            -2.088119921717240e-01 4.655588925476166e-01 -2.632929063435770e-01 -8.082994036627686e-02 7.772715816360043e-02 3.018157789005601e-02 7.639266901561612e-02 3.034629719556931e-02
            -2.633073092401974e-01 -8.085065474078708e-02 -2.088057861289671e-01 4.654549053356221e-01 7.640967274328980e-02 3.024386006718671e-02 7.763425129836467e-02 3.023764824265643e-02
566527939.9499583244 8.713375045526967e-02 3.051672112608322e-02 8.591268728441960e-02 3.219288767129474e-02 -1.331680134405381e-01 4.920731750300526e-01 -2.707671869085799e-01 -3.923701954914063e-02
            8.582932003173629e-02 3.227343504326805e-02 8.708853249226393e-02 3.059599212272233e-02 -2.707768524512107e-01 -3.928617613351795e-02 -1.331048697310553e-01 4.921292921901433e-01
            -1.331491258313875e-01 4.919969202974490e-01 -2.707409272646041e-01 -3.927796627001898e-02 8.762356290141819e-02 3.048961290354873e-02 8.638343502816342e-02 3.076198044414103e-02
            -2.707104675950818e-01 -3.924961599337210e-02 -1.331180543832920e-01 4.921607193728397e-01 8.641938179206390e-02 3.077069218506746e-02 8.766998426247184e-02 3.050610048577958e-02
567027522.9357798100 9.661593703378478e-02 2.788674207722670e-02 9.569135378182850e-02 2.955801551896028e-02 -5.452028609482750e-02 5.063507045227291e-01 -2.719211532699340e-01 2.511154568420475e-03
            9.561810865478507e-02 2.960234640132069e-02 9.661602906232697e-02 2.786047460093357e-02 -2.720006763276757e-01 2.473762980137855e-03 -5.454906952184397e-02 5.063114288757486e-01
            -5.455076145261893e-02 5.062399747228867e-01 -2.719692248937956e-01 2.473756877474964e-03 9.710602300930281e-02 2.777978126991570e-02 9.595229088435642e-02 2.801922367174048e-02
            -2.719815455948457e-01 2.519309836742205e-03 -5.458291590427824e-02 5.062741950195733e-01 9.587204784595824e-02 2.813564351769608e-02 9.708701699051209e-02 2.774687267871635e-02
567527105.9216012955 1.047416184728782e-01 2.253303641048079e-02 1.039855751608194e-01 2.400599553131566e-02 2.485219684042394e-02 5.080714133053846e-01 -2.671751806357052e-01 4.374638571947680e-02
            1.039624907046976e-01 2.409253893906806e-02 1.047395618285321e-01 2.258029145442497e-02 -2.671418848500159e-01 4.367944638513314e-02 2.478830413951495e-02 5.080537607320870e-01
            2.487300877287477e-02 5.081485106044308e-01 -2.671517819773104e-01 4.369338065946485e-02 1.051306303017792e-01 2.225867991542951e-02 1.042182621419837e-01 2.268114966501259e-02
            -2.671873069910050e-01 4.371388553705669e-02 2.488499127630234e-02 5.080979377743198e-01 1.041706166382843e-01 2.258221156507808e-02 1.052284785597780e-01 2.213946998147726e-02
568026688.9074229002 1.106876681188899e-01 1.495101227013062e-02 1.103048853418612e-01 1.626081763672861e-02 1.032704108987672e-01 4.976964376184376e-01 -2.564855404207558e-01 8.375417695836715e-02
            1.103296650756107e-01 1.631397975874663e-02 1.107774758719548e-01 1.481548865321017e-02 -2.564490046120382e-01 8.366359159852323e-02 1.031734719418732e-01 4.976553645494142e-01
            1.032019249059941e-01 4.976331386108879e-01 -2.563845937503152e-01 8.370927030294020e-02 1.111682345274875e-01 1.456642095109151e-02 1.102272522978322e-01 1.481774378339040e-02
            -2.564628518093296e-01 8.372847107759136e-02 1.031277240000806e-01 4.977455640872055e-01 1.101218137747608e-01 1.485188558698938e-02 1.112466970895567e-01 1.453142402197390e-02
568526271.8932443857 1.142109889359980e-01 5.854931402862455e-03 1.138766196528513e-01 7.034609065843076e-03 1.787335738114618e-01 4.755185838687252e-01 -2.400357541427129e-01 1.217220666168499e-01
            1.139030529125680e-01 7.141254804670033e-03 1.141438689838615e-01 5.860782972497610e-03 -2.399717547257418e-01 1.218152251837161e-01 1.787677566797152e-01 4.755360993970691e-01
            1.786512285258941e-01 4.754575613121822e-01 -2.400765143102594e-01 1.216705179882772e-01 1.145178870309848e-01 5.287794173083441e-03 1.135924564295096e-01 5.586354336841327e-03
            -2.400705743738384e-01 1.217003481743210e-01 1.787721851256019e-01 4.755485212106796e-01 1.136068578918693e-01 5.628636796614492e-03 1.144710869441348e-01 5.306292399892847e-03
569025854.8790658712 1.146238717631450e-01 -3.797905931857059e-03 1.144091661843493e-01 -2.762149689945809e-03 2.498775973687586e-01 4.422927161603256e-01 -2.180195843795524e-01 1.569983338438122e-01
            1.144703422495551e-01 -2.785737625645694e-03 1.145993685858201e-01 -3.902417341994420e-03 -2.180241794058772e-01 1.570105573157403e-01 2.498666063916044e-01 4.422507150245554e-01
            2.498328548130059e-01 4.422740048461367e-01 -2.181124197298261e-01 1.570599374366139e-01 1.148151171219072e-01 -4.453312537130082e-03 1.139790783539317e-01 -4.155918762406303e-03
            -2.180522770645394e-01 1.570056536596411e-01 2.498089827341511e-01 4.423641016708339e-01 1.139722133705229e-01 -4.095187035096088e-03 1.148580587643365e-01 -4.367959100750395e-03
569525437.8648874760 1.120699024340667e-01 -1.316137888770493e-02 1.119930884772023e-01 -1.228646433319661e-02 3.150884686158578e-01 3.988226846628101e-01 -1.907778221040174e-01 1.888249296321467e-01
            1.119208355195282e-01 -1.226152410435190e-02 1.121791942629778e-01 -1.319379689138692e-02 -1.908269068680910e-01 1.887433899260398e-01 3.151379855662105e-01 3.988112571580051e-01
            3.151355883204684e-01 3.988015323190817e-01 -1.908167662766606e-01 1.887311258815096e-01 1.121887705193503e-01 -1.374644558833991e-02 1.113194967454472e-01 -1.355046974985574e-02
            -1.908901336831688e-01 1.886594509549299e-01 3.151247815860226e-01 3.987975108560262e-01 1.113527248816689e-01 -1.358742643709324e-02 1.122567010315031e-01 -1.378551498665001e-02
570025020.8507089615 1.067476445603404e-01 -2.122277743229764e-02 1.066638248332155e-01 -2.065769151109724e-02 3.731201169647122e-01 3.460411604581007e-01 -1.587992519034031e-01 2.160153633330897e-01
            1.066769560140024e-01 -2.054960143905714e-02 1.067477460469546e-01 -2.121840390190530e-02 -1.589187005276848e-01 2.160143252477836e-01 3.730581182178996e-01 3.460359525183223e-01
            3.732141784214785e-01 3.460251140724071e-01 -1.588851693067699e-01 2.161315762039453e-01 1.067865229860547e-01 -2.190919264673038e-02 1.059335967248988e-01 -2.183320544854954e-02
            -1.588862131852926e-01 2.160380202171381e-01 3.731497317104031e-01 3.460051461291926e-01 1.058702649635176e-01 -2.183494743729126e-02 1.068071034785965e-01 -2.200111945960373e-02
570524603.8365304470 9.922221297518886e-02 -2.731237376867424e-02 9.907762788732781e-02 -2.691024377338105e-02 4.227512640394633e-01 2.848769879318725e-01 -1.227849275432389e-01 2.381279905484599e-01
            9.899156036558986e-02 -2.694573816722243e-02 9.929397043687893e-02 -2.726993637915678e-02 -1.227245894862578e-01 2.381246035257311e-01 4.227771585046466e-01 2.848829381535795e-01
            4.227136146992378e-01 2.849263541654006e-01 -1.228104774728722e-01 2.381518985487089e-01 9.912758730942771e-02 -2.812426663887036e-02 9.814993101299545e-02 -2.800886503871146e-02
            -1.227352068078267e-01 2.381597309099932e-01 4.227459311984714e-01 2.849837502280481e-01 9.821337741140429e-02 -2.799682975250564e-02 9.916234252582901e-02 -2.810425572579867e-02
571024186.8223519325 9.018006704194444e-02 -3.088809632786841e-02 8.984858089215259e-02 -3.061433318491515e-02 4.627406561924191e-01 2.167454429270216e-01 -8.334646656255648e-02 2.541555416265324e-01
            8.983735416249232e-02 -3.053667353434163e-02 9.011389985503523e-02 -3.088459846006686e-02 -8.333547950586839e-02 2.541499255671139e-01 4.626570434083901e-01 2.167319871286360e-01
            4.627453049217374e-01 2.168309084770816e-01 -8.338384624741010e-02 2.541048151831576e-01 8.993657788099228e-02 -3.151479792862144e-02 8.883549045840379e-02 -3.150181780287981e-02
            -8.333040381317729e-02 2.541456178645997e-01 4.626515914515608e-01 2.166951457208113e-01 8.881333553549693e-02 -3.152046361013308e-02 8.994965654172350e-02 -3.152912055727512e-02
571523769.8081735373 8.035470146808206e-02 -3.133668920480863e-02 7.984127654895629e-02 -3.123719404591781e-02 4.919985489639210e-01 1.428732639142698e-01 -4.167449759400340e-02 2.635422265290795e-01
            7.991100524541288e-02 -3.118549339333128e-02 8.044007544381004e-02 -3.141116609172460e-02 -4.166567112814694e-02 2.634438069136629e-01 4.920236777491006e-01 1.428319627183379e-01
            4.920412988660766e-01 1.429366990870896e-01 -4.165080282588222e-02 2.635612877146831e-01 7.995435112073318e-02 -3.209962685712098e-02 7.878832094358154e-02 -3.193800651927498e-02
            -4.164836382741715e-02 2.634957951594532e-01 4.920176209175627e-01 1.428362358258931e-01 7.882265125905115e-02 -3.196907644858305e-02 8.003413889814982e-02 -3.209528437710276e-02
572023352.7939950228 7.081440301648358e-02 -2.881113994539078e-02 7.014168784598271e-02 -2.864487010162177e-02 5.097366898019735e-01 6.488215003727603e-02 9.801521387939947e-04 2.657939467203815e-01
            7.023378537715300e-02 -2.876000620858429e-02 7.086306540081772e-02 -2.881533970125566e-02 1.051225467882346e-03 2.658033941419101e-01 5.097766817876136e-01 6.479354324388924e-02
            5.096586817116885e-01 6.479440003581495e-02 1.045076992989100e-03 2.658160940409841e-01 7.032180653737861e-02 -2.933038635691394e-02 6.905556244666933e-02 -2.928391179783799e-02
            1.032629478608583e-03 2.658279403039964e-01 5.097147858138212e-01 6.481851260660497e-02 6.905320752102599e-02 -2.923181264547491e-02 7.041157093290537e-02 -2.934995880256804e-02
572522935.7798165083 6.264436401821975e-02 -2.320963965601635e-02 6.175662876742756e-02 -2.317698024040149e-02 5.150541553856054e-01 -1.567792844905926e-02 4.341864593290807e-02 2.609104597502753e-01
            6.171428283448400e-02 -2.311716280155409e-02 6.257468984753896e-02 -2.324278541619737e-02 4.342177112825934e-02 2.609574412490729e-01 5.151167884322401e-01 -1.560818007546368e-02
            5.151245777921607e-01 -1.566612747302896e-02 4.342451849177795e-02 2.609479540666430e-01 6.201810029974869e-02 -2.376435309452949e-02 6.062107130968419e-02 -2.353252650678930e-02
            4.339411506698145e-02 2.609585306423041e-01 5.150444001315675e-01 -1.566028132569921e-02 6.061529772156196e-02 -2.359891931045621e-02 6.197473541875910e-02 -2.378873627365401e-02
573022518.7656379938 5.647031485295056e-02 -1.546889469679347e-02 5.549368257364829e-02 -1.519664811893627e-02 5.077256290325357e-01 -9.649053875656503e-02 8.406943806409255e-02 2.491156248344307e-01
            5.543261841436511e-02 -1.520127973179768e-02 5.646258302501234e-02 -1.542001955025252e-02 8.415153204381477e-02 2.491271973326324e-01 5.076606479707046e-01 -9.643513748266523e-02
            5.076595695091000e-01 -9.640027878547697e-02 8.409576239431160e-02 2.491605145698824e-01 5.585510747106800e-02 -1.578430651900782e-02 5.424684232431502e-02 -1.552971105044632e-02
            8.408680292526086e-02 2.491790132436374e-01 5.076903961065247e-01 -9.641081285560701e-02 5.428952954173703e-02 -1.536016284494916e-02 5.584461577955405e-02 -1.579544325995519e-02
573522101.7514595985 5.318345935476376e-02 -5.984732523307127e-03 5.202808454470543e-02 -5.534604251065485e-03 4.872583225630526e-01 -1.754264509272343e-01 1.218318930180056e-01 2.308159519618113e-01
            5.201552222792034e-02 -5.601524983101003e-03 5.321088455926017e-02 -6.052438479021249e-03 1.219149993994121e-01 2.307999902373304e-01 4.872300760367705e-01 -1.754560085781693e-01
            4.872866837734400e-01 -1.754353419538254e-01 1.218402640977154e-01 2.307770043953156e-01 5.247724673342444e-02 -6.241231767723112e-03 5.097197433146904e-02 -5.786232460381905e-03
            1.218383111086325e-01 2.309012819224377e-01 4.872338650962318e-01 -1.754169926544575e-01 5.086658105833252e-02 -5.805944909589111e-03 5.257254459888749e-02 -6.194334436489588e-03
574021684.7372810841 5.303550161720134e-02 3.997196260955429e-03 5.181581086836546e-02 4.553633782161013e-03 4.543008785800416e-01 -2.505382511454151e-01 1.555681204373437e-01 2.068550421317790e-01
            5.185019595763996e-02 4.571402682214560e-03 5.311550523079860e-02 3.941700759999866e-03 1.555655974410129e-01 2.068464031470296e-01 4.544252470677964e-01 -2.504850191699282e-01
            4.543474940044346e-01 -2.505615342865385e-01 1.555657528287657e-01 2.068784029066260e-01 5.241834702848810e-02 3.978033672161596e-03 5.073975703143183e-02 4.538922737853267e-03
            1.556134644624420e-01 2.068339420836736e-01 4.543547499204056e-01 -2.505881869259903e-01 5.072796007294430e-02 4.587641514357892e-03 5.241007129446624e-02 3.891756934311995e-03
574521267.7231025696 5.618435510332580e-02 1.354241021605801e-02 5.483010364038459e-02 1.421665935094747e-02 4.096367210103104e-01 -3.194373701619451e-01 1.846118585179120e-01 1.782606167530468e-01
            5.484059320306944e-02 1.417362075566795e-02 5.613015568332415e-02 1.346364630803946e-02 1.846219221635734e-01 1.781929484186135e-01 4.095634253768057e-01 -3.194416920215125e-01
            4.095485741463515e-01 -3.194105542614076e-01 1.845646169185876e-01 1.781791381364254e-01 5.550353912721402e-02 1.355844059682344e-02 5.383292005171831e-02 1.432930438231325e-02
            1.846096290438283e-01 1.781981834342669e-01 4.096147811008602e-01 -3.195258652683189e-01 5.380940152634793e-02 1.429108709282679e-02 5.550943367374292e-02 1.346900368185724e-02
575020850.7089240551 6.207775877566687e-02 2.149780585884696e-02 6.072389400761961e-02 2.236637675368879e-02 3.541615521601740e-01 -3.802031908075244e-01 2.082376118378958e-01 1.458604495507737e-01
            6.085264114906462e-02 2.245933389183649e-02 6.212045818342893e-02 2.146767069528075e-02 2.081810661980615e-01 1.458616065712146e-01 3.542933090127613e-01 -3.801461533812828e-01
            3.542444859005710e-01 -3.802081111555093e-01 2.082165960686848e-01 1.459144077777245e-01 6.148125646374007e-02 2.164805562686980e-02 5.987896539843612e-02 2.266987655736832e-02
            2.082645101711302e-01 1.458237004772264e-01 3.541954397911611e-01 -3.801642618184334e-01 5.983768896535322e-02 2.261722833597448e-02 6.153323548252358e-02 2.166019728018539e-02
575520433.6947456598 7.023288257282442e-02 2.713936756579856e-02 6.904775886784963e-02 2.825902581240007e-02 2.898113379987085e-01 -4.311895286981596e-01 2.263153025072914e-01 1.108550451044333e-01
            6.903484626747837e-02 2.827157811179584e-02 7.021448152673664e-02 2.710398141776046e-02 2.263052082057475e-01 1.108757868854659e-01 2.898290202667647e-01 -4.311731586852649e-01
            2.897976172389415e-01 -4.312218985384570e-01 2.263104246691140e-01 1.108847939001520e-01 6.970210463178875e-02 2.740514823973287e-02 6.811431946011719e-02 2.849403204256728e-02
            2.262615397865817e-01 1.108271858946430e-01 2.897825865614342e-01 -4.311561525760118e-01 6.811830477195698e-02 2.850353193140599e-02 6.974383428134780e-02 2.736418746860600e-02
576020016.6805671453 7.968455902923854e-02 2.994613590421656e-02 7.853190886019243e-02 3.112137816296245e-02 2.183235750188073e-01 -4.711156529991111e-01 2.386985797887917e-01 7.418142994440401e-02
            7.855990315236548e-02 3.115512669403111e-02 7.968689102693664e-02 2.998076998219584e-02 2.387026618803095e-01 7.418002781124165e-02 2.182916050603793e-01 -4.710494557996940e-01
            2.183408999238171e-01 -4.710511105698618e-01 2.386802254475546e-01 7.418285573842631e-02 7.929496612864728e-02 3.028643578881826e-02 7.770470474145121e-02 3.150669212583207e-02
            2.386320215076989e-01 7.413487172258731e-02 2.183567445711528e-01 -4.710755693260043e-01 7.772655981833931e-02 3.153470904301540e-02 7.926250229069810e-02 3.030225373776663e-02
576519599.6663886309 8.947277103497746e-02 2.966772691752403e-02 8.844749675298610e-02 3.113270005018060e-02 1.417750308282424e-01 -4.990220195795327e-01 2.454433881962692e-01 3.654322057814453e-02
            8.841563062179379e-02 3.106480636593894e-02 8.942191838957102e-02 2.959089435420264e-02 2.454810536451416e-01 3.655478824264604e-02 1.418252383487364e-01 -4.989129279149999e-01
            1.417231295405964e-01 -4.989083455995338e-01 2.454845380173483e-01 3.649720474790597e-02 8.925152372202463e-02 2.997288009106742e-02 8.770502010530844e-02 3.136794650759511e-02
            2.454121802725897e-01 3.653348554976020e-02 1.417250395967515e-01 -4.989472055641500e-01 8.771667115682555e-02 3.143204797987052e-02 8.913350821288425e-02 3.008395419260107e-02
577019182.6522102356 9.862171491043834e-02 2.623094908185879e-02 9.777444413027603e-02 2.779411190562989e-02 6.210543711698494e-02 -5.143141871471973e-01 2.467261561852248e-01 -1.293835878449200e-03
            9.778785206123532e-02 2.772316289541995e-02 9.860956684335123e-02 2.630870740138768e-02 2.466911106846271e-01 -1.320204273221885e-03 6.203172074910294e-02 -5.143132075419102e-01
            6.213599555237596e-02 -5.144385940254974e-01 2.467034535620028e-01 -1.254700603425048e-03 9.847072475796524e-02 2.677461895116194e-02 9.704560864148960e-02 2.826804551175811e-02
            2.466810565458206e-01 -1.314967733070618e-03 6.210027138030311e-02 -5.143488132753040e-01 9.704931387626904e-02 2.812505521254619e-02 9.843985006863955e-02 2.677310609334591e-02
577518765.6380317211 1.062309440295508e-01 2.031361821595265e-02 1.056265429734402e-01 2.185783795436870e-02 -1.852777776352813e-02 -5.172112793789382e-01 2.424879548050075e-01 -3.865494280961893e-02
            1.055740937886516e-01 2.186128921985321e-02 1.062737161106244e-01 2.033260746745015e-02 2.424185354575677e-01 -3.863917519291811e-02 -1.856452716754575e-02 -5.171854194799869e-01
            -1.853074299475388e-02 -5.171853748017170e-01 2.424735801219623e-01 -3.868912724956129e-02 1.061374961273135e-01 2.080116617512647e-02 1.049408686929379e-01 2.221403118904217e-02
            2.424235242682662e-01 -3.867360476249488e-02 -1.856924524834332e-02 -5.172159842907451e-01 1.049495952676669e-01 2.221439942895572e-02 1.061317732797836e-01 2.081566854481134e-02
578018348.6238532066 1.116296938021718e-01 1.234206390764560e-02 1.111898479931183e-01 1.393654308933797e-02 -9.826218404974836e-02 -5.076659135192589e-01 2.327935485499751e-01 -7.493363756578837e-02
            1.111777799595343e-01 1.390701852093913e-02 1.117408845706491e-01 1.230680687922879e-02 2.329086212969477e-01 -7.493823234582789e-02 -9.829948939081837e-02 -5.076909630357727e-01
            -9.830678859446300e-02 -5.075913387296874e-01 2.328319029716451e-01 -7.497657898699679e-02 1.117078704368125e-01 1.272131950529078e-02 1.105517197066712e-01 1.431291158508642e-02
            2.328700453436763e-01 -7.491118173502166e-02 -9.826143628689175e-02 -5.075997833633363e-01 1.105670477484742e-01 1.422772498717974e-02 1.117417541955283e-01 1.280144427939899e-02
578517931.6096746922 1.143829529552483e-01 3.077630965516424e-03 1.139466042715233e-01 4.582835506971585e-03 -1.753529344719149e-01 -4.861679385675440e-01 2.181394209811015e-01 -1.095394743521667e-01
            1.139692311719494e-01 4.585887756748949e-03 1.143009586416314e-01 3.058993886242200e-03 2.181512482107240e-01 -1.095539587349672e-01 -1.753922928651920e-01 -4.861092495288544e-01
            -1.754279895614577e-01 -4.860948928661225e-01 2.180804891433152e-01 -1.094915404378284e-01 1.144731674543986e-01 3.517164397535478e-03 1.135282705260844e-01 4.964176529593573e-03
            2.181450853326205e-01 -1.095805732881252e-01 -1.754169532252082e-01 -4.861201154574650e-01 1.134921768264485e-01 5.005160608627468e-03 1.145185841768561e-01 3.526634704433103e-03
579017514.5954962969 1.140888947654213e-01 -6.567579306061672e-03 1.138958311035453e-01 -5.048089710453477e-03 -2.481866713511959e-01 -4.533887797734124e-01 1.983151244124663e-01 -1.416269373470873e-01
            1.138150894514330e-01 -5.100429343336722e-03 1.140482198147447e-01 -6.534333541599222e-03 1.982579424845757e-01 -1.415753604654347e-01 -2.481788279603152e-01 -4.533203827687606e-01
            -2.481900770696130e-01 -4.533777005667110e-01 1.982800922434311e-01 -1.416078873554472e-01 1.143828033317111e-01 -6.172595741242947e-03 1.133568311273587e-01 -4.699896233656795e-03
            1.982732900897584e-01 -1.416091504548311e-01 -2.482049257829698e-01 -4.533680731772565e-01 1.133719886817873e-01 -4.742154307475196e-03 1.142555063397354e-01 -6.151070674651204e-03
579517097.5813177824 1.109582095710165e-01 -1.564086064579216e-02 1.108313690793391e-01 -1.425937915629857e-02 -3.152079145297491e-01 -4.101217214365362e-01 1.736380181432577e-01 -1.705355494182526e-01
            1.108563743444996e-01 -1.431111346606592e-02 1.109131992570211e-01 -1.571019160714673e-02 1.736530438994252e-01 -1.704588736047552e-01 -3.152081029879498e-01 -4.101134885110496e-01
            -3.151612215376918e-01 -4.101078092316456e-01 1.737028322899435e-01 -1.705424238795092e-01 1.112756214543727e-01 -1.537988107935548e-02 1.102662955483414e-01 -1.387683208243832e-02
            1.736483098454398e-01 -1.705183250840720e-01 -3.152108842590295e-01 -4.100772484687456e-01 1.102124130981940e-01 -1.393204377982767e-02 1.111551002090722e-01 -1.538346560296744e-02
580016680.5671392679 1.049446092985120e-01 -2.340634609022834e-02 1.051339958876192e-01 -2.201378136518885e-02 -3.750172421633607e-01 -3.571250173709302e-01 1.446028516487812e-01 -1.953935582824228e-01
            1.050758314458703e-01 -2.206080385783482e-02 1.050543508845704e-01 -2.329370898228748e-02 1.446760380260826e-01 -1.954456305695249e-01 -3.750286915609999e-01 -3.571291041436957e-01
            -3.750861747261181e-01 -3.570944828117585e-01 1.446314983327813e-01 -1.954542541913310e-01 1.055026340577983e-01 -2.317053758215421e-02 1.045713675672616e-01 -2.174371495611199e-02
            1.445597585211340e-01 -1.954639541929802e-01 -3.750288474056099e-01 -3.571388672706299e-01 1.045287435636585e-01 -2.173784048486262e-02 1.054320491613962e-01 -2.312187358830950e-02
580516263.5529607534 9.700868454807537e-02 -2.892881581627535e-02 9.719054201627804e-02 -2.776902029981503e-02 -4.263576162992034e-01 -2.955263482961746e-01 1.117719211249400e-01 -2.154913093685722e-01
            9.718709215940315e-02 -2.777745910006039e-02 9.702856027054811e-02 -2.894938149706398e-02 1.116969198966997e-01 -2.155183484511075e-01 -4.263324698313662e-01 -2.955766009788887e-01
            -4.263400239487338e-01 -2.955571030966030e-01 1.117191822099129e-01 -2.155002709791745e-01 9.760207204415047e-02 -2.890233537097430e-02 9.664069424311975e-02 -2.741644256408421e-02
            1.117713310880874e-01 -2.155727155361740e-01 -4.264518606103966e-01 -2.955419157553137e-01 9.661357293683906e-02 -2.739287406830523e-02 9.755279989091439e-02 -2.880475241826682e-02
581015846.5387823582 8.765722652992378e-02 -3.180758221282099e-02 8.785900584188437e-02 -3.078520814707803e-02 -4.679473311937234e-01 -2.265993580408503e-01 7.594733109841915e-02 -2.299875874823187e-01
            8.790678991160437e-02 -3.070999217933941e-02 8.760763330493893e-02 -3.179947587938595e-02 7.591560820260433e-02 -2.300835753227438e-01 -4.680251052345533e-01 -2.266296653122941e-01
            -4.680261983860921e-01 -2.266278722925726e-01 7.591723720655555e-02 -2.300863543889301e-01 8.821487816378713e-02 -3.181209454633256e-02 8.729405846647313e-02 -3.034742043930141e-02
            7.582318718884580e-02 -2.300113586355396e-01 -4.680118860732671e-01 -2.265605601814146e-01 8.728693401725177e-02 -3.035311125325733e-02 8.825328741997333e-02 -3.180096047130429e-02
581515429.5246038437 7.784544958241771e-02 -3.173873682904013e-02 7.803205626816617e-02 -3.073427922866619e-02 -4.988596390077291e-01 -1.516807605332814e-01 3.795049465177427e-02 -2.384911144221430e-01
            7.797839207392493e-02 -3.076576143836034e-02 7.777868043406891e-02 -3.171621360520507e-02 3.797009867653905e-02 -2.384718769018299e-01 -4.987788852425719e-01 -1.517324009657264e-01
            -4.988055959589633e-01 -1.516673988072350e-01 3.792473525249201e-02 -2.384722890382824e-01 7.837445541827712e-02 -3.181598182537289e-02 7.755058555602372e-02 -3.023070998339701e-02
            3.801805193515516e-02 -2.385609868746753e-01 -4.988269887886214e-01 -1.516537829162578e-01 7.742023957612570e-02 -3.022951690297301e-02 7.837754962261957e-02 -3.180354829342023e-02
582015012.5104253292 6.842242481079455e-02 -2.842099813038821e-02 6.865814285280036e-02 -2.757265108372021e-02 -5.177463089415667e-01 -7.242000277372444e-02 -8.248047744664989e-04 -2.404360264837328e-01
            6.863482374663406e-02 -2.754829441359004e-02 6.844138695463513e-02 -2.842872603519247e-02 -7.963511413875664e-04 -2.404414462242167e-01 -5.177560846642666e-01 -7.239817916099643e-02
            -5.177401606380011e-01 -7.239403672600467e-02 -7.806603591224296e-04 -2.404482228489054e-01 6.900107392519357e-02 -2.866266623019591e-02 6.810104401603254e-02 -2.705323408375122e-02
            -8.857339770902310e-04 -2.403872575571364e-01 -5.177589451031444e-01 -7.241099841329139e-02 6.806254903696844e-02 -2.709490141288855e-02 6.904277924479588e-02 -2.860727095317657e-02
582514595.4962469339 6.053897992750627e-02 -2.234690939060971e-02 6.067339328489249e-02 -2.170886953607694e-02 -5.240929110976225e-01 9.541489737170273e-03 -3.921847456984486e-02 -2.358218724967285e-01
            6.060981262854287e-02 -2.164363659875360e-02 6.049640706794130e-02 -2.231453693734758e-02 -3.925836311049664e-02 -2.358373124099719e-01 -5.240713678701435e-01 9.384822587754886e-03
            -5.240956248240688e-01 9.367048507251258e-03 -3.921517170543096e-02 -2.357565674737999e-01 6.101317993141210e-02 -2.272583108513375e-02 6.011028244849207e-02 -2.099727264529478e-02
            -3.919198983577272e-02 -2.358404770644615e-01 -5.241054736434769e-01 9.453398293884427e-03 6.010677743357314e-02 -2.101593151386321e-02 6.103959615038209e-02 -2.269033282388274e-02
583014178.4820684195 5.486354665502907e-02 -1.397697657203001e-02 5.492891759513538e-02 -1.340088094014886e-02 -5.172977704452477e-01 9.176612499354643e-02 -7.599291397308951e-02 -2.247952687582579e-01
            5.502497413455890e-02 -1.334697987198944e-02 5.492282774208529e-02 -1.398719248542774e-02 -7.598529511750184e-02 -2.248729752676783e-01 -5.173332678189131e-01 9.172249444549505e-02
            -5.173739967463649e-01 9.177875986710329e-02 -7.596225299827487e-02 -2.248717012348186e-01 5.534944132673664e-02 -1.446555158940639e-02 5.441496251266755e-02 -1.270484183114288e-02
            -7.591532081634043e-02 -2.247820784181453e-01 -5.173204585961179e-01 9.182781584840137e-02 5.442933384107757e-02 -1.268260181763377e-02 5.537180649720230e-02 -1.450322678006679e-02
583513761.4678899050 5.222955266671367e-02 -4.258555821679453e-03 5.220156477532582e-02 -3.850525550121238e-03 -4.974316486772190e-01 1.723358194436269e-01 -1.099646555636433e-01 -2.080594764840807e-01
            5.218457936008310e-02 -3.753426521166811e-03 5.222380328625937e-02 -4.384845544148334e-03 -1.099824092349012e-01 -2.080439341174539e-01 -4.975189247484396e-01 1.724583550738411e-01
            -4.974259068599612e-01 1.723730242952252e-01 -1.099756065121274e-01 -2.080109938888363e-01 5.252081511610113e-02 -4.859638325578711e-03 5.170163693000140e-02 -2.960342971993085e-03
            -1.099147276906487e-01 -2.081129274264042e-01 -4.974267526925324e-01 1.723237433100860e-01 5.167817630121757e-02 -3.002746220017980e-03 5.262124579092516e-02 -4.919808353619262e-03
584013344.4537113905 5.270948810804388e-02 5.744588371362242e-03 5.269780206664145e-02 6.199229669528918e-03 -4.646753435236174e-01 2.490157397447781e-01 -1.402906808775969e-01 -1.862021929935884e-01
            5.265821185972467e-02 6.240615750124589e-03 5.277501616569206e-02 5.740312316885815e-03 -1.402142327204971e-01 -1.862235539988630e-01 -4.646478774839106e-01 2.489856746960909e-01
            -4.647075990690277e-01 2.490058510274984e-01 -1.402642988207302e-01 -1.862448120501213e-01 5.304271143908981e-02 5.045921762245648e-03 5.226335084555476e-02 7.149667512087996e-03
            -1.402788437580983e-01 -1.862167005821164e-01 -4.646249853388293e-01 2.489860953956512e-01 5.216460209716334e-02 7.030801859337884e-03 5.303068468246459e-02 5.060525385401493e-03
584512927.4395329952 5.635944311667210e-02 1.507317538648210e-02 5.620464426604055e-02 1.555335366853181e-02 -4.199098529378533e-01 3.194006909092307e-01 -1.661589061204749e-01 -1.602928556307667e-01
            5.624560521713514e-02 1.556241870608125e-02 5.635832312189414e-02 1.503677386028482e-02 -1.661322436854638e-01 -1.602344062195058e-01 -4.198780588196750e-01 3.194068046438033e-01
            -4.199427743789547e-01 3.194177335887379e-01 -1.661328639530981e-01 -1.603291663909625e-01 5.654109050990062e-02 1.428715927743097e-02 5.592359327228608e-02 1.640394703213374e-02
            -1.661718996960435e-01 -1.602078599299805e-01 -4.199061524850206e-01 3.193948452460948e-01 5.597209407165064e-02 1.652228039321631e-02 5.663690576026626e-02 1.440064459239504e-02
585012510.4253544807 6.273481530813041e-02 2.269138703017034e-02 6.265413299341559e-02 2.313910661175617e-02 -3.643950896940111e-01 3.816301975680073e-01 -1.872297247111736e-01 -1.311088760274585e-01
            6.268945028099397e-02 2.318421492327930e-02 6.274241044184757e-02 2.273041688035865e-02 -1.871677797847507e-01 -1.311324400619649e-01 -3.643292418096109e-01 3.816375956514432e-01
            -3.643911174153669e-01 3.816880452252832e-01 -1.871927520561926e-01 -1.310459413850688e-01 6.288535397555584e-02 2.194802982215106e-02 6.235111651834405e-02 2.412768214009003e-02
            -1.872270760227553e-01 -1.311123792224896e-01 -3.642857509790463e-01 3.816758345821229e-01 6.238021536660842e-02 2.426243002706720e-02 6.291239121407957e-02 2.195527535492743e-02
585512093.4111759663 7.128576518680810e-02 2.794524556915218e-02 7.103522669065176e-02 2.836544954269446e-02 -2.995851334949354e-01 4.340903993782463e-01 -2.032459490883694e-01 -9.961477379266168e-02
            7.102542116274838e-02 2.836749201068406e-02 7.124676640747092e-02 2.798955611264294e-02 -2.032400408407209e-01 -9.963579513731953e-02 -2.996182683511313e-01 4.341050324010199e-01
            -2.995684146683740e-01 4.340705698700324e-01 -2.032136436847836e-01 -9.974242251827094e-02 7.126397958141448e-02 2.712967438144308e-02 7.086795590861647e-02 2.943510681285167e-02
            -2.032322234441258e-01 -9.961452458623513e-02 -2.996142965049393e-01 4.340852475702540e-01 7.088172200586124e-02 2.938101897050364e-02 7.120808712235309e-02 2.721380921478325e-02
586011676.3969974518 8.082038019557659e-02 3.027388470325343e-02 8.058818171450108e-02 3.065723078492575e-02 -2.276607444043354e-01 4.752999073396436e-01 -2.142661241896351e-01 -6.669496079374236e-02
            8.058661901693748e-02 3.060810889882942e-02 8.088888293969455e-02 3.020594588715029e-02 -2.142410568592822e-01 -6.666364175637284e-02 -2.275288796307409e-01 4.753247027036514e-01
            -2.275231394169460e-01 4.752175772213548e-01 -2.142281679265087e-01 -6.675718478904313e-02 8.075228564232327e-02 2.946895464552463e-02 8.054917775695378e-02 3.180772650987759e-02
            -2.142277964833559e-01 -6.669916400891847e-02 -2.275860337774194e-01 4.753003541241966e-01 8.057440947449594e-02 3.168309352806676e-02 8.072162218084304e-02 2.947827570898449e-02
586511259.3828190565 9.059338466301896e-02 2.946878209343700e-02 9.036424367659007e-02 2.988922917219619e-02 -1.503588795905456e-01 5.044696724197499e-01 -2.201655046362314e-01 -3.302133931858667e-02
            9.041094339184562e-02 2.983334544986823e-02 9.062440316203817e-02 2.930674843907607e-02 -2.201978274569617e-01 -3.301003393877408e-02 -1.503276693185903e-01 5.044166772252984e-01
            -1.503659301083355e-01 5.044509413433788e-01 -2.202203358308064e-01 -3.298985308787914e-02 9.032325070212968e-02 2.865353373848200e-02 9.041757809255171e-02 3.094166939789022e-02
            -2.202217666598883e-01 -3.297065829962051e-02 -1.502856225743568e-01 5.045071629418145e-01 9.037674297746705e-02 3.089765755900329e-02 9.035692671225001e-02 2.860874790942939e-02
587010842.3686405420 9.962040857442291e-02 2.566314167492398e-02 9.927343285044381e-02 2.602343473293291e-02 -6.984602777357411e-02 5.211108429276774e-01 -2.212455388442156e-01 8.132415402283504e-04
            9.930690475759564e-02 2.606866216503231e-02 9.954010930952162e-02 2.558590812625745e-02 -2.212498968384636e-01 8.228613044952929e-04 -6.983044999062180e-02 5.209951123645410e-01
            -6.980582793595497e-02 5.211383048264040e-01 -2.212339388701858e-01 9.010448498583645e-04 9.923537377608237e-02 2.491460315679990e-02 9.939542190131338e-02 2.711484136058546e-02
            -2.212363904849934e-01 8.681376722831228e-04 -6.981390595312860e-02 5.211086250761694e-01 9.950865442925305e-02 2.705326917574267e-02 9.926216186685435e-02 2.491369843390302e-02
587510425.3544620275 1.069122315493796e-01 1.935816548493484e-02 1.065232398488584e-01 1.973168245537484e-02 1.192211110906766e-02 5.250321084014233e-01 -2.175360027402920e-01 3.432334840112104e-02
            1.064740917674212e-01 1.972830892810588e-02 1.069334369440162e-01 1.935158437483694e-02 -2.174705683376749e-01 3.432653523593780e-02 1.186212920087742e-02 5.250055751109214e-01
            1.189160577469835e-02 5.249969758232588e-01 -2.174626805566793e-01 3.425341721976639e-02 1.064634048373164e-01 1.861199969219925e-02 1.068024260353744e-01 2.079020042930748e-02
            -2.175889266733518e-01 3.433137881809502e-02 1.186153690346040e-02 5.249775774944708e-01 1.068335873286852e-01 2.078488768163963e-02 1.064335248245950e-01 1.863367836369268e-02
588010008.3402836323 1.119341415144431e-01 1.105750995545331e-02 1.114590406920381e-01 1.153562192529238e-02 9.281679300619800e-02 5.164670493579235e-01 -2.089425201194632e-01 6.688785713700315e-02
            1.114693097764897e-01 1.153603330542500e-02 1.119507910161167e-01 1.111952376329815e-02 -2.089469999558238e-01 6.692851483991706e-02 9.287673951013270e-02 5.164670076764279e-01
            9.284682641250201e-02 5.165003916571280e-01 -2.088931849727232e-01 6.687622417589231e-02 1.113968913673647e-01 1.044158326981775e-02 1.119259262422168e-01 1.244537429491109e-02
            -2.089332465195913e-01 6.687715533108543e-02 9.290700236294523e-02 5.164056917459384e-01 1.118909136377491e-01 1.248361994539654e-02 1.113053970952371e-01 1.050621182861478e-02
588509591.3261051178 1.141267050311773e-01 1.808228085254884e-03 1.136838521935455e-01 2.189439799909346e-03 1.713395525323875e-01 4.956627634036651e-01 -1.957112448597975e-01 9.788411975424371e-02
            1.136383888262118e-01 2.209862306153311e-03 1.142169206756445e-01 1.788206797841416e-03 -1.957276532471482e-01 9.792115868781083e-02 1.713970163933728e-01 4.956876373879561e-01
            1.714048017154417e-01 4.957244590920254e-01 -1.957464176970727e-01 9.791489620125172e-02 1.135318436578070e-01 1.227446388973481e-03 1.142025245559136e-01 3.132308238709484e-03
            -1.957489288813333e-01 9.791229422309421e-02 1.713617076103817e-01 4.957937326170457e-01 1.141974289744130e-01 3.097620955469651e-03 1.135957146614987e-01 1.240631545090963e-03
589009174.3119266033 1.134806824662981e-01 -7.799463667272029e-03 1.128837343885037e-01 -7.363483728686586e-03 2.457502408985711e-01 4.634489390459325e-01 -1.778584848926133e-01 1.267271713988343e-01
            1.128274055051890e-01 -7.333632633632100e-03 1.135155287046900e-01 -7.873620857666672e-03 -1.778664086407130e-01 1.267830420549255e-01 2.456745875846117e-01 4.634713729709055e-01
            2.456353261052564e-01 4.635421483792417e-01 -1.779143922140940e-01 1.267197904072531e-01 1.126807127246618e-01 -8.175457422644375e-03 1.135278383503849e-01 -6.585260176931524e-03
            -1.779415030644875e-01 1.268000314152951e-01 2.457157406472965e-01 4.635035739958938e-01 1.134897427269107e-01 -6.414438861806539e-03 1.127711850324808e-01 -8.184590416993539e-03
589508757.2977480888 1.098665918533218e-01 -1.672736835893884e-02 1.091436266430523e-01 -1.621031623955118e-02 3.143591290359695e-01 4.204364013710987e-01 -1.557478706522046e-01 1.528165643668689e-01
            1.092191265063824e-01 -1.622209302470592e-02 1.098412610857954e-01 -1.661408997655613e-02 -1.557653084170536e-01 1.527632081363166e-01 3.142435838937326e-01 4.203900986901167e-01
            3.143136037274893e-01 4.205387352199623e-01 -1.557766794731009e-01 1.527259098948798e-01 1.091743540363800e-01 -1.701219450238706e-02 1.099518305988208e-01 -1.547394171058331e-02
            -1.556810444577527e-01 1.527288847538523e-01 3.143220073044843e-01 4.204577885092025e-01 1.099200780465642e-01 -1.545039583341934e-02 1.091500679686088e-01 -1.706961960920687e-02
590008340.2835696936 1.037910028163627e-01 -2.401518783036850e-02 1.029362697809537e-01 -2.350477740848357e-02 3.758456324369181e-01 3.674445304248274e-01 -1.295835869773467e-01 1.752235198024012e-01
            1.029576587549065e-01 -2.345545599852025e-02 1.036868266603455e-01 -2.401489985639674e-02 -1.296008463181522e-01 1.751637248796989e-01 3.758160242814604e-01 3.674491900705305e-01
            3.757894992708929e-01 3.674823119556718e-01 -1.295896306132698e-01 1.751625409701288e-01 1.029802011567628e-01 -2.427647429471048e-02 1.038014374942056e-01 -2.302928838482106e-02
            -1.296309850221689e-01 1.751199388811757e-01 3.758057400483369e-01 3.674643791309936e-01 1.037999101145644e-01 -2.294924794231294e-02 1.029791424871849e-01 -2.425805529276082e-02
590507923.2693911791 9.555797331656876e-02 -2.914343857728548e-02 9.470361335229389e-02 -2.862377890439189e-02 4.288403079101304e-01 3.055949942649812e-01 -1.000342514554829e-01 1.931626866988969e-01
            9.475959328863688e-02 -2.855780977346495e-02 9.556283621400631e-02 -2.922450183758373e-02 -1.000035268636639e-01 1.931175538784957e-01 4.289088228004252e-01 3.056240582344536e-01
            4.288881005087578e-01 3.056543645941247e-01 -1.000469363131261e-01 1.930939888524595e-01 9.475634846433732e-02 -2.934560487440107e-02 9.557812602703433e-02 -2.818207519557429e-02
            -9.994145132272117e-02 1.931135143852833e-01 4.288144617591804e-01 3.056449409996417e-01 9.554039059293790e-02 -2.823085722100203e-02 9.480103890133372e-02 -2.930584810239918e-02
591007506.2552126646 8.620348199566645e-02 -3.155826445075299e-02 8.522644240002333e-02 -3.090200850753633e-02 4.719437303409882e-01 2.361637539870430e-01 -6.769694417985914e-02 2.060535238517221e-01
            8.532353467753627e-02 -3.096466180470335e-02 8.622416891666645e-02 -3.153731800775690e-02 -6.760409398463831e-02 2.060998563005308e-01 4.719906618840143e-01 2.361625395889944e-01
            4.720427314486464e-01 2.361525034800451e-01 -6.762965914569519e-02 2.060061626088803e-01 8.546310106561383e-02 -3.159525597668229e-02 8.608490334225458e-02 -3.065038502961524e-02
            -6.760592930694567e-02 2.060207908607442e-01 4.720228790645030e-01 2.361217181486840e-01 8.614239133555950e-02 -3.059001445006354e-02 8.541787794515694e-02 -3.158896030243490e-02
591507089.2410341501 7.646270739155059e-02 -3.080533316681276e-02 7.552222362122409e-02 -3.019238417051894e-02 5.042080824893840e-01 1.603910853599888e-01 -3.347345997552667e-02 2.134563767724281e-01
            7.550363511827000e-02 -3.006433787933247e-02 7.649259004721443e-02 -3.089366571488533e-02 -3.353913406447180e-02 2.134099605274333e-01 5.041682106257618e-01 1.603179461083566e-01
            5.042676775486442e-01 1.604078550570513e-01 -3.349363229583581e-02 2.134383316276462e-01 7.573417114622977e-02 -3.082010841867237e-02 7.635840704584868e-02 -2.997588995325311e-02
            -3.346454351564616e-02 2.133907556757045e-01 5.041553190988176e-01 1.603875945571129e-01 7.635481207597632e-02 -2.998406114468632e-02 7.573992678864803e-02 -3.083056109616065e-02
592006672.2268557549 6.744383971014004e-02 -2.722791982841078e-02 6.641955793171400e-02 -2.635446885622760e-02 5.242886759230261e-01 8.005575038807249e-02 1.310501049566043e-03 2.148582325847783e-01
            6.641544433386132e-02 -2.632584214706793e-02 6.745039818395232e-02 -2.726223181749910e-02 1.411435020466432e-03 2.148031285982347e-01 5.243934220754269e-01 8.003856740120840e-02
            5.244493909413638e-01 7.998093455419455e-02 1.294264058192476e-03 2.148540264526046e-01 6.674799028521761e-02 -2.706887771403796e-02 6.728298460497222e-02 -2.635154925424671e-02
            1.382920851118253e-03 2.148197140618525e-01 5.243955553788833e-01 7.996564109062497e-02 6.721132407931737e-02 -2.627952906988297e-02 6.675830863809090e-02 -2.706106812530345e-02
592506255.2126772404 5.997226160041992e-02 -2.083538737006988e-02 5.887308407618656e-02 -1.982602636472836e-02 5.316729883550789e-01 -3.002370561732858e-03 3.560732458833937e-02 2.103323639011601e-01
            5.891253068528787e-02 -1.985204391524406e-02 5.998081790160318e-02 -2.073195415399036e-02 3.562207076008158e-02 2.103010129567039e-01 5.317672262079488e-01 -3.069103166865125e-03
            5.317170199322850e-01 -3.004910509579762e-03 3.567095133957842e-02 2.104098411324655e-01 5.925046062713166e-02 -2.053262440900771e-02 5.963250563151861e-02 -1.990166191805161e-02
            3.574784083936042e-02 2.103654367840186e-01 5.317425234307741e-01 -3.074120067843752e-03 5.965760042147145e-02 -1.992818136159550e-02 5.930216403103148e-02 -2.059479826723484e-02
593005838.1984987259 5.489133902143820e-02 -1.233283006091728e-02 5.383610206178529e-02 -1.126867546349903e-02 5.257752483783014e-01 -8.658953048973589e-02 6.849545601557774e-02 2.001947503666234e-01
            5.387081317602175e-02 -1.127287356783931e-02 5.490618920875949e-02 -1.239646715292875e-02 6.853273486971909e-02 2.001337941117230e-01 5.257814505279330e-01 -8.664451261103454e-02
            5.257520845016291e-01 -8.668815996843610e-02 6.854375392379428e-02 2.001671639381732e-01 5.422857746095978e-02 -1.212237803592326e-02 5.444373659517900e-02 -1.141068410332556e-02
            6.839972291719300e-02 2.000986026058691e-01 5.257736418436667e-01 -8.665583142187905e-02 5.452988313884663e-02 -1.153006640941958e-02 5.428013968004335e-02 -1.208379066579867e-02
593505421.1843203306 5.287428403989931e-02 -2.715227674015942e-03 5.176759103084985e-02 -1.542384112325011e-03 5.063476210659535e-01 -1.685837126966764e-01 9.870352891471844e-02 1.848035962941050e-01
            5.171891352784901e-02 -1.502798635981849e-03 5.275584026587259e-02 -2.734254524747467e-03 9.875720839552454e-02 1.848431176010621e-01 5.064106113473481e-01 -1.685925121461544e-01
            5.063864787676480e-01 -1.685687293616906e-01 9.867461759843199e-02 1.849092359758284e-01 5.217911132519301e-02 -2.423114917029105e-03 5.240039154052009e-02 -1.740176379576402e-03
            9.861594234221285e-02 1.847578959912563e-01 5.064000474895606e-01 -1.686685772974273e-01 5.227269745964481e-02 -1.717761555575130e-03 5.222527525228186e-02 -2.448920978944705e-03
594005004.1701418161 5.388438418256072e-02 6.963176835096174e-03 5.295206348854716e-02 8.336635431665098e-03 4.740249327732603e-01 -2.466657100611826e-01 1.253777779143741e-01 1.651750624996174e-01
            5.288140679694445e-02 8.352552702605228e-03 5.386498044905670e-02 7.091042321115755e-03 1.253733130810231e-01 1.651486437443964e-01 4.739537710973915e-01 -2.466004564653366e-01
            4.739806075826751e-01 -2.465630025936601e-01 1.254392600300041e-01 1.650506417524914e-01 5.328304395182104e-02 7.457019785542797e-03 5.337606808141862e-02 8.121199231528689e-03
            1.254416941016005e-01 1.651280648438716e-01 4.739456372934618e-01 -2.465648352598952e-01 5.329149758062572e-02 8.173301386400607e-03 5.334519013961492e-02 7.439825422974142e-03
594504587.1559633017 5.789903246353548e-02 1.595537260955549e-02 5.708913287433678e-02 1.739048980409337e-02 4.293420189584788e-01 -3.183360445241158e-01 1.481282386669669e-01 1.417473928082763e-01
            5.702035634324049e-02 1.735867626032581e-02 5.790884790965793e-02 1.593486856763605e-02 1.481811834891446e-01 1.416792548987053e-01 4.294169163660478e-01 -3.183748979547746e-01
            4.293805410709282e-01 -3.183716502500168e-01 1.481100476702208e-01 1.417339328324350e-01 5.750224935444934e-02 1.639608344799456e-02 5.742515781447563e-02 1.714386255346690e-02
            1.481087742436984e-01 1.417154699744460e-01 4.294107338790362e-01 -3.183865730847145e-01 5.746132126464458e-02 1.718389554202867e-02 5.753565226605835e-02 1.630435264967436e-02
595004170.1417847872 6.469970204909513e-02 2.301900951028069e-02 6.386056355011356e-02 2.466698896740979e-02 3.737509265128532e-01 -3.820540579016671e-01 1.664644771637609e-01 1.156754962593256e-01
            6.390332786038862e-02 2.458849116468056e-02 6.458091562698216e-02 2.305554630415642e-02 1.665361095018154e-01 1.156761213713468e-01 3.737664327523699e-01 -3.819472913087367e-01
            3.737511585481986e-01 -3.819384669857392e-01 1.665374205248843e-01 1.156712509933598e-01 6.424251048018213e-02 2.338621930689737e-02 6.419479037998234e-02 2.427346682741444e-02
            1.665630336008335e-01 1.156343732031023e-01 3.737584130056979e-01 -3.820169976781976e-01 6.413432341706705e-02 2.429202865271351e-02 6.426655017278995e-02 2.351473751522161e-02
595503753.1276063919 7.325198372458903e-02 2.767006356325478e-02 7.251122510250528e-02 2.925397012525612e-02 3.089201310720555e-01 -4.357054263781702e-01 1.803536447102623e-01 8.762277029965369e-02
            7.256852952330294e-02 2.918544955462312e-02 7.327967314001403e-02 2.767392968172976e-02 1.803835320574018e-01 8.766217950872598e-02 3.088954843981741e-01 -4.356991897090264e-01
            3.088384791552229e-01 -4.356739183185173e-01 1.803574738382901e-01 8.768838772555623e-02 7.295444692716177e-02 2.809444640297367e-02 7.274677184127529e-02 2.898502160515523e-02
            1.803636558035170e-01 8.769696899561460e-02 3.088898347776780e-01 -4.356586332629092e-01 7.278656126151602e-02 2.899755143963680e-02 7.288657724682104e-02 2.811180784029230e-02
596003336.1134278774 8.274893486837220e-02 2.929363411282946e-02 8.219735550300630e-02 3.098886354247136e-02 2.365286163750017e-01 -4.782287168910767e-01 1.898703953303637e-01 5.851029004967629e-02
            8.218217034746904e-02 3.087880856659773e-02 8.272289573200740e-02 2.932411600285264e-02 1.897860409110940e-01 5.857985204109695e-02 2.365180957239272e-01 -4.782494799666015e-01
            2.365308757844243e-01 -4.782845179486924e-01 1.899583128076344e-01 5.849689678560183e-02 8.240720344920913e-02 2.981722466126610e-02 8.238254617595972e-02 3.066556435163486e-02
            1.898366878880636e-01 5.856780115739080e-02 2.365828180880780e-01 -4.782609077484149e-01 8.231437640207756e-02 3.070319843745545e-02 8.251913012264427e-02 2.973429880397873e-02
596502919.0992493629 9.229671680995986e-02 2.785002364397741e-02 9.172512575835841e-02 2.955147437743758e-02 1.587275286201706e-01 -5.086696582959969e-01 1.949338432642095e-01 2.870710185942228e-02
            9.177670338004017e-02 2.960947343933673e-02 9.224589537234541e-02 2.782278179221642e-02 1.949778122680187e-01 2.870755968118135e-02 1.587268652939828e-01 -5.086283726240598e-01
            1.587220512253611e-01 -5.086718089433155e-01 1.949413086864694e-01 2.878492242328418e-02 9.198700490081585e-02 2.827449011129821e-02 9.181010350023346e-02 2.932713993462279e-02
            1.950083894765043e-01 2.876739761858731e-02 1.587100423461359e-01 -5.086261906986124e-01 9.188500919060899e-02 2.931423018014432e-02 9.208813401943475e-02 2.827172255056181e-02
597002502.0850708485 1.007232823177454e-01 2.367196801342127e-02 1.003393931016405e-01 2.523087240053770e-02 7.762285756825760e-02 -5.265187432911593e-01 1.957537471296870e-01 -1.158479070587596e-03
            1.003433226631081e-01 2.531715313417978e-02 1.007499270603304e-01 2.364449006890949e-02 1.957712306023032e-01 -1.224105838574353e-03 7.762524772615056e-02 -5.264851362015815e-01
            7.763853274637005e-02 -5.264895815679826e-01 1.956857166843351e-01 -1.188875088488336e-03 1.005927454923663e-01 2.416761573451786e-02 1.004456603824118e-01 2.509532637580445e-02
            1.958035748778185e-01 -1.230516976559023e-03 7.750631453923709e-02 -5.264821445214026e-01 1.004931464973696e-01 2.511033385524368e-02 1.006021278421037e-01 2.414514172504798e-02
597502085.0708924532 1.075241280465144e-01 1.702350905235157e-02 1.072592248656144e-01 1.860815915818699e-02 -4.901660263518249e-03 -5.316899096000912e-01 1.922962106370096e-01 -3.075678411214168e-02
            1.072121141566835e-01 1.857116753607120e-02 1.074442716330989e-01 1.704373206583721e-02 1.922812869219419e-01 -3.078468093332113e-02 -4.969432747393942e-03 -5.315629807367444e-01
            -5.023809804943884e-03 -5.315697540117872e-01 1.922969917459697e-01 -3.081866241286161e-02 1.073799065202100e-01 1.751751702030793e-02 1.073985489383168e-01 1.850152217668081e-02
            1.922525357632078e-01 -3.078450861679973e-02 -4.961031057810621e-03 -5.315639110237949e-01 1.073389264063438e-01 1.841447713596844e-02 1.073471664367101e-01 1.746498382231110e-02
598001668.0567139387 1.118609218543664e-01 8.624619097792210e-03 1.116723428081735e-01 1.017702808418592e-02 -8.702294185468017e-02 -5.240025031349967e-01 1.846980472760421e-01 -5.958366335306711e-02
            1.117070194958567e-01 1.023872760214274e-02 1.117180898796501e-01 8.684637338707696e-03 1.846248896912039e-01 -5.953733426244478e-02 -8.700374511887979e-02 -5.240889267584192e-01
            -8.709272668190408e-02 -5.240629093368078e-01 1.846954374997581e-01 -5.954199658502937e-02 1.118409235493374e-01 9.070270094269733e-03 1.117991406044162e-01 1.010188202302636e-02
            1.846308285690256e-01 -5.959090652891827e-02 -8.705109204432657e-02 -5.240262355327261e-01 1.117085423478282e-01 1.006775364911744e-02 1.117257095439482e-01 9.107042403332058e-03
598501251.0425354242 1.133691023884526e-01 -5.712568677518461e-04 1.133391304407605e-01 8.929146960448186e-04 -1.667850190903523e-01 -5.041715282178595e-01 1.728543465431779e-01 -8.701401474236779e-02
            1.133219147702621e-01 8.566932710813739e-04 1.134013787829022e-01 -6.326571191616462e-04 1.728481772415581e-01 -8.702049021945571e-02 -1.667358527802044e-01 -5.041591751686780e-01
            -1.667704011214609e-01 -5.041766499761692e-01 1.728353734325153e-01 -8.698290759995642e-02 1.133719192621812e-01 -2.095448014937258e-04 1.134059233552795e-01 8.557066014069708e-04
            1.728605267847198e-01 -8.697534246028554e-02 -1.667070798258184e-01 -5.042297571862838e-01 1.133510108889411e-01 9.016198735693526e-04 1.133794289196370e-01 -2.541908678729181e-04
599000834.0283570290 1.120868492598895e-01 -9.956360118889233e-03 1.120264854087277e-01 -8.588716787561275e-03 -2.424519719092292e-01 -4.725800126646325e-01 1.570234027294094e-01 -1.125304336953980e-01
            1.120819087418062e-01 -8.548193364875922e-03 1.120498768290220e-01 -9.932612228000841e-03 1.569851515767354e-01 -1.124415404597628e-01 -2.424880780137112e-01 -4.724998571414196e-01
            -2.424592401359882e-01 -4.726295527955292e-01 1.569041542747286e-01 -1.125123503375279e-01 1.120932611235115e-01 -9.544469735443204e-03 1.120906672365224e-01 -8.535543690318583e-03
            1.569841073127090e-01 -1.125418482648612e-01 -2.424065585003460e-01 -4.725744635622011e-01 1.121054991658996e-01 -8.539193664511458e-03 1.121016113850990e-01 -9.626962544286671e-03
599500417.0141785145 1.079253602561229e-01 -1.842155533529678e-02 1.079600178188865e-01 -1.707797507398081e-02 -3.125909332102854e-01 -4.299163070229332e-01 1.372836652144551e-01 -1.355126607510278e-01
            1.079903659383406e-01 -1.706166921204028e-02 1.079202587751180e-01 -1.845044068594085e-02 1.372362890766280e-01 -1.354600292435536e-01 -3.126169733889319e-01 -4.299566186225099e-01
            -3.125629164116888e-01 -4.300289459506141e-01 1.372618213623856e-01 -1.354016449867536e-01 1.079781517175892e-01 -1.810254521502602e-02 1.079432101582433e-01 -1.707306728129867e-02
            1.371811128048895e-01 -1.355070371031460e-01 -3.126286514407132e-01 -4.299486858813036e-01 1.079916506931717e-01 -1.705864004453143e-02 1.080117549614970e-01 -1.798464319832008e-02
600000000.0000000000 1.014567876767358e-01 -2.516707208503562e-02 1.014049519559587e-01 -2.395173818201691e-02 -3.756538660290144e-01 -3.770977184894130e-01 1.138659724876854e-01 -1.552211022171986e-01
            1.012824783442844e-01 -2.406035458291735e-02 1.014733775539088e-01 -2.520660080525080e-02 1.138471914104633e-01 -1.552207394953073e-01 -3.756331822616084e-01 -3.770716853946610e-01
            -3.756375690062823e-01 -3.771356714693541e-01 1.139257769384726e-01 -1.552216970185379e-01 1.014638373036549e-01 -2.491931673156372e-02 1.014505481726883e-01 -2.391102353160548e-02
            1.138240832126027e-01 -1.552206185585831e-01 -3.756830243258018e-01 -3.770871994290360e-01 1.015055004827249e-01 -2.395775888962340e-02 1.014815860263587e-01 -2.494409590756611e-02
